 vasp.6.5.0 16Dec24 (build Jan 22 2025 16:10:45) complex                        
  
 executed on             LinuxIFC date 2026.06.01  22:12:34
 running   32 mpi-ranks, on    1 nodes
 distrk:  each k-point on   32 cores,    1 groups
 distr:  one band on NCORE=   1 cores,   32 groups


--------------------------------------------------------------------------------------------------------


 INCAR:
   SYSTEM = V2O5 g_cv_lambda VBM_to_CBM
   PREC = Accurate
   ENCUT = 600
   EDIFF = 1E-8
   ISMEAR = 0
   SIGMA = 0.01
   EFERMI = MIDGAP
   ISPIN = 1
   LREAL = .FALSE.
   LASPH = .TRUE.
   ADDGRID = .TRUE.
   LWAVE = .FALSE.
   LCHARG = .FALSE.
   ISYM = -1
   ELPH_RUN = .TRUE.
   ELPH_DRIVER = mels
   ELPH_DECOMPOSE = VDPR
   ELPH_SELFEN_KPTS = 0.0000000000  0.0000000000  0.0000000000  0.4651162791  0.5000000000  0.0000000000
   ELPH_SELFEN_BAND_START = 56
   ELPH_SELFEN_BAND_STOP = 56
   NBANDS = 64
   ELPH_NBANDS = 57
   ELPH_KPAR = 1
   KPOINTS_OPT_MODE = 2
   ELPH_USEBLAS = .TRUE.
   ELPH_WF_COMM_OPT = 1

 POTCAR:    PAW_PBE O 08Apr2002                   
 POTCAR:    PAW_PBE V_sv 02Aug2007                
 -----------------------------------------------------------------------------
|                                                                             |
|           W    W    AA    RRRRR   N    N  II  N    N   GGGG   !!!           |
|           W    W   A  A   R    R  NN   N  II  NN   N  G    G  !!!           |
|           W    W  A    A  R    R  N N  N  II  N N  N  G       !!!           |
|           W WW W  AAAAAA  RRRRR   N  N N  II  N  N N  G  GGG   !            |
|           WW  WW  A    A  R   R   N   NN  II  N   NN  G    G                |
|           W    W  A    A  R    R  N    N  II  N    N   GGGG   !!!           |
|                                                                             |
|     For optimal performance we recommend to set                             |
|       NCORE = 2 up to number-of-cores-per-socket                            |
|     NCORE specifies how many cores store one orbital (NPAR=cpu/NCORE).      |
|     This setting can greatly improve the performance of VASP for DFT.       |
|     The default, NCORE=1 might be grossly inefficient on modern             |
|     multi-core architectures or massively parallel machines. Do your        |
|     own testing! More info at https://www.vasp.at/wiki/index.php/NCORE      |
|     Unfortunately you need to use the default for GW and RPA                |
|     calculations (for HF NCORE is supported but not extensively tested      |
|     yet).                                                                   |
|                                                                             |
 -----------------------------------------------------------------------------

 POTCAR:    PAW_PBE O 08Apr2002                   
   VRHFIN =O: s2p4                                                                                  
   LEXCH  = PE                                                                                      
   EATOM  =   432.3788 eV,   31.7789 Ry                                                             
                                                                                                    
   TITEL  = PAW_PBE O 08Apr2002                                                                     
   LULTRA =        F    use ultrasoft PP ?                                                          
   IUNSCR =        1    unscreen: 0-lin 1-nonlin 2-no                                               
   RPACOR =    1.200    partial core radius                                                         
   POMASS =   16.000; ZVAL   =    6.000    mass and valenz                                          
   RCORE  =    1.520    outmost cutoff radius                                                       
   RWIGS  =    1.550; RWIGS  =    0.820    wigner-seitz radius (au A)                               
   ENMAX  =  400.000; ENMIN  =  300.000 eV                                                          
   ICORE  =        2    local potential                                                             
   LCOR   =        T    correct aug charges                                                         
   LPAW   =        T    paw PP                                                                      
   EAUG   =  605.392                                                                                
   DEXC   =    0.000                                                                                
   RMAX   =    1.553    core radius for proj-oper                                                   
   RAUG   =    1.300    factor for augmentation sphere                                              
   RDEP   =    1.550    radius for radial grids                                                     
   RDEPT  =    1.329    core radius for aug-charge                                                  
                                                                                                    
   Atomic configuration                                                                             
    4 entries                                                                                       
     n  l   j            E        occ.                                                              
     1  0  0.50      -514.6923   2.0000                                                             
     2  0  0.50       -23.9615   2.0000                                                             
     2  1  0.50        -9.0305   4.0000                                                             
     3  2  1.50        -9.5241   0.0000                                                             
   Description                                                                                      
     l       E           TYP  RCUT    TYP  RCUT                                                     
     0    -23.9615318     23  1.200                                                                 
     0     -9.5240782     23  1.200                                                                 
     1     -9.0304911     23  1.520                                                                 
     1      8.1634956     23  1.520                                                                 
     2     -9.5240782      7  1.500                                                                 
  local pseudopotential read in
  partial core-charges read in
  partial kinetic energy density read in
  kinetic energy density of atom read in
  atomic valenz-charges read in
  non local Contribution for L=           0  read in
    real space projection operators read in
  non local Contribution for L=           0  read in
    real space projection operators read in
  non local Contribution for L=           1  read in
    real space projection operators read in
  non local Contribution for L=           1  read in
    real space projection operators read in
    PAW grid and wavefunctions read in
 
   number of l-projection  operators is LMAX  =           4
   number of lm-projection operators is LMMAX =           8
 
 POTCAR:    PAW_PBE V_sv 02Aug2007                
   VRHFIN =V: p6 d4 s1                                                                              
   LEXCH  = PE                                                                                      
   EATOM  =  1952.1149 eV,  143.4764 Ry                                                             
                                                                                                    
   TITEL  = PAW_PBE V_sv 02Aug2007                                                                  
   LULTRA =        F    use ultrasoft PP ?                                                          
   IUNSCR =        1    unscreen: 0-lin 1-nonlin 2-no                                               
   RPACOR =    2.000    partial core radius                                                         
   POMASS =   50.941; ZVAL   =   13.000    mass and valenz                                          
   RCORE  =    2.300    outmost cutoff radius                                                       
   RWIGS  =    2.300; RWIGS  =    1.217    wigner-seitz radius (au A)                               
   ENMAX  =  263.673; ENMIN  =  197.755 eV                                                          
   ICORE  =        3    local potential                                                             
   LCOR   =        T    correct aug charges                                                         
   LPAW   =        T    paw PP                                                                      
   EAUG   =  526.568                                                                                
   RMAX   =    2.359    core radius for proj-oper                                                   
   RAUG   =    1.300    factor for augmentation sphere                                              
   RDEP   =    2.430    radius for radial grids                                                     
   RDEPT  =    1.870    core radius for aug-charge                                                  
                                                                                                    
   Atomic configuration                                                                             
    8 entries                                                                                       
     n  l   j            E        occ.                                                              
     1  0  0.50     -5360.7193   2.0000                                                             
     2  0  0.50      -598.4546   2.0000                                                             
     2  1  1.50      -499.0155   6.0000                                                             
     3  0  0.50       -66.5711   2.0000                                                             
     4  0  0.50        -3.8743   1.0000                                                             
     3  1  1.50       -40.5282   6.0000                                                             
     3  2  2.50        -2.4291   4.0000                                                             
     4  3  2.50        -1.3606   0.0000                                                             
   Description                                                                                      
     l       E           TYP  RCUT    TYP  RCUT                                                     
     0    -66.5711413     23  1.800                                                                 
     0     -3.8742736     23  2.300                                                                 
     1    -40.5282350     23  2.000                                                                 
     1      5.4423304     23  2.000                                                                 
     2     -2.4290848     23  2.300                                                                 
     2     -1.0472431     23  2.300                                                                 
     3     -1.3605826     23  2.300                                                                 
  local pseudopotential read in
  partial core-charges read in
  partial kinetic energy density read in
  atomic valenz-charges read in
  non local Contribution for L=           0  read in
    real space projection operators read in
  non local Contribution for L=           0  read in
    real space projection operators read in
  non local Contribution for L=           1  read in
    real space projection operators read in
  non local Contribution for L=           1  read in
    real space projection operators read in
  non local Contribution for L=           2  read in
    real space projection operators read in
  non local Contribution for L=           2  read in
    real space projection operators read in
    PAW grid and wavefunctions read in
 
   number of l-projection  operators is LMAX  =           6
   number of lm-projection operators is LMMAX =          18
 
  PAW_PBE O 08Apr2002                   :
 energy of atom  1       EATOM= -432.3788
 kinetic energy error for atom=    0.0168 (will be added to EATOM!!)
  PAW_PBE V_sv 02Aug2007                :
 energy of atom  2       EATOM=-1952.1149
 kinetic energy error for atom=    0.0055 (will be added to EATOM!!)
 
 
 POSCAR: V2O5 primitive cell reordered as O V for
  positions in direct lattice
  No initial velocities read in


 exchange-correlation table for PE
   RHO(1)=    0.500       N(1)  =     2000
   RHO(2)=  100.500       N(2)  =     4000
 


--------------------------------------------------------------------------------------------------------


 ion  position               nearest neighbor table
   1  0.000  0.994  0.000-  11 1.78  14 1.78
   2  0.000  0.514  0.147-  11 1.60
   3  0.500  0.994  0.182-  11 1.87  11 1.87  12 2.03
   4  0.000  0.006  0.318-  12 1.87  12 1.87  11 2.03
   5  0.500  0.486  0.353-  12 1.60
   6  0.500  0.006  0.500-  12 1.78  13 1.78
   7  0.500  0.486  0.647-  13 1.60
   8  0.000  0.006  0.682-  13 1.87  13 1.87  14 2.03
   9  0.500  0.994  0.818-  14 1.87  14 1.87  13 2.03
  10  0.000  0.514  0.853-  14 1.60
  11  0.000  0.889  0.148-   2 1.60   1 1.78   3 1.87   3 1.87   4 2.03
  12  0.500  0.111  0.352-   5 1.60   6 1.78   4 1.87   4 1.87   3 2.03
  13  0.500  0.111  0.648-   7 1.60   6 1.78   8 1.87   8 1.87   9 2.03
  14  0.000  0.889  0.852-  10 1.60   1 1.78   9 1.87   9 1.87   8 2.03
 

IMPORTANT INFORMATION: All symmetrisations will be switched off!
NOSYMM: (Re-)initialisation of all symmetry stuff for point group C_1.


----------------------------------------------------------------------------------------

                                     Primitive cell                                     

  volume of cell :     175.7185

  direct lattice vectors                    reciprocal lattice vectors
     3.551749810  0.000000000  0.000000000     0.281551363  0.000000000  0.000000000
    -0.000000000  4.263357790  0.000000000     0.000000000  0.234556903  0.000000000
     0.000000000  0.000000000 11.604417110    -0.000000000 -0.000000000  0.086174083

  length of vectors
     3.551749810  4.263357790 11.604417110     0.281551363  0.234556903  0.086174083

  position of ions in fractional coordinates (direct lattice)
     0.000000000  0.993642970  0.000000000
     0.000000000  0.513997720  0.146684000
     0.500000000  0.994157560  0.181899990
     0.000000000  0.005842440  0.318100010
     0.500000000  0.486002280  0.353316000
     0.500000000  0.006357030  0.500000000
     0.500000000  0.486002280  0.646684000
     0.000000000  0.005842440  0.681899990
     0.500000000  0.994157560  0.818100010
     0.000000000  0.513997720  0.853316000
     0.000000000  0.888587040  0.148299650
     0.500000000  0.111412960  0.351700350
     0.500000000  0.111412960  0.648299650
     0.000000000  0.888587040  0.851700350

  ion indices of the primitive-cell ions
   primitive index   ion index
                 1           1
                 2           2
                 3           3
                 4           4
                 5           5
                 6           6
                 7           7
                 8           8
                 9           9
                10          10
                11          11
                12          12
                13          13
                14          14

----------------------------------------------------------------------------------------

 
 
 KPOINTS: Automatic mesh                          

Automatic generation of k-mesh.
 Grid dimensions read from file:
 generate k-points for:   43    2    1

 Generating k-lattice:

  Cartesian coordinates                     Fractional coordinates (reciprocal lattice)
     0.006547706  0.000000000  0.000000000     0.023255814  0.000000000  0.000000000
     0.000000000  0.117278452  0.000000000     0.000000000  0.500000000  0.000000000
    -0.000000000 -0.000000000  0.086174083     0.000000000  0.000000000  1.000000000

  Length of vectors
     0.006547706  0.117278452  0.086174083

  Shift w.r.t. Gamma in fractional coordinates (k-lattice)
     0.000000000  0.000000000  0.000000000

 
 Subroutine IBZKPT returns following result:
 ===========================================
 
 Found     86 irreducible k-points:
 
 Following reciprocal coordinates:
            Coordinates               Weight
  0.000000  0.000000  0.000000      1.000000
  0.023256  0.000000  0.000000      1.000000
  0.046512  0.000000  0.000000      1.000000
  0.069767  0.000000  0.000000      1.000000
  0.093023  0.000000  0.000000      1.000000
  0.116279  0.000000  0.000000      1.000000
  0.139535  0.000000  0.000000      1.000000
  0.162791  0.000000  0.000000      1.000000
  0.186047  0.000000  0.000000      1.000000
  0.209302  0.000000  0.000000      1.000000
  0.232558  0.000000  0.000000      1.000000
  0.255814  0.000000  0.000000      1.000000
  0.279070  0.000000  0.000000      1.000000
  0.302326  0.000000  0.000000      1.000000
  0.325581  0.000000  0.000000      1.000000
  0.348837  0.000000  0.000000      1.000000
  0.372093  0.000000  0.000000      1.000000
  0.395349  0.000000  0.000000      1.000000
  0.418605  0.000000  0.000000      1.000000
  0.441860  0.000000  0.000000      1.000000
  0.465116  0.000000  0.000000      1.000000
  0.488372  0.000000  0.000000      1.000000
 -0.488372  0.000000  0.000000      1.000000
 -0.465116  0.000000  0.000000      1.000000
 -0.441860  0.000000  0.000000      1.000000
 -0.418605  0.000000  0.000000      1.000000
 -0.395349  0.000000  0.000000      1.000000
 -0.372093  0.000000  0.000000      1.000000
 -0.348837  0.000000  0.000000      1.000000
 -0.325581  0.000000  0.000000      1.000000
 -0.302326  0.000000  0.000000      1.000000
 -0.279070  0.000000  0.000000      1.000000
 -0.255814  0.000000  0.000000      1.000000
 -0.232558  0.000000  0.000000      1.000000
 -0.209302  0.000000  0.000000      1.000000
 -0.186047  0.000000  0.000000      1.000000
 -0.162791  0.000000  0.000000      1.000000
 -0.139535  0.000000  0.000000      1.000000
 -0.116279  0.000000  0.000000      1.000000
 -0.093023  0.000000  0.000000      1.000000
 -0.069767  0.000000  0.000000      1.000000
 -0.046512  0.000000  0.000000      1.000000
 -0.023256  0.000000  0.000000      1.000000
  0.000000  0.500000  0.000000      1.000000
  0.023256  0.500000  0.000000      1.000000
  0.046512  0.500000  0.000000      1.000000
  0.069767  0.500000  0.000000      1.000000
  0.093023  0.500000  0.000000      1.000000
  0.116279  0.500000  0.000000      1.000000
  0.139535  0.500000  0.000000      1.000000
  0.162791  0.500000  0.000000      1.000000
  0.186047  0.500000  0.000000      1.000000
  0.209302  0.500000  0.000000      1.000000
  0.232558  0.500000  0.000000      1.000000
  0.255814  0.500000  0.000000      1.000000
  0.279070  0.500000  0.000000      1.000000
  0.302326  0.500000  0.000000      1.000000
  0.325581  0.500000  0.000000      1.000000
  0.348837  0.500000  0.000000      1.000000
  0.372093  0.500000  0.000000      1.000000
  0.395349  0.500000  0.000000      1.000000
  0.418605  0.500000  0.000000      1.000000
  0.441860  0.500000  0.000000      1.000000
  0.465116  0.500000  0.000000      1.000000
  0.488372  0.500000  0.000000      1.000000
 -0.488372  0.500000  0.000000      1.000000
 -0.465116  0.500000  0.000000      1.000000
 -0.441860  0.500000  0.000000      1.000000
 -0.418605  0.500000  0.000000      1.000000
 -0.395349  0.500000  0.000000      1.000000
 -0.372093  0.500000  0.000000      1.000000
 -0.348837  0.500000  0.000000      1.000000
 -0.325581  0.500000  0.000000      1.000000
 -0.302326  0.500000  0.000000      1.000000
 -0.279070  0.500000  0.000000      1.000000
 -0.255814  0.500000  0.000000      1.000000
 -0.232558  0.500000  0.000000      1.000000
 -0.209302  0.500000  0.000000      1.000000
 -0.186047  0.500000  0.000000      1.000000
 -0.162791  0.500000  0.000000      1.000000
 -0.139535  0.500000  0.000000      1.000000
 -0.116279  0.500000  0.000000      1.000000
 -0.093023  0.500000  0.000000      1.000000
 -0.069767  0.500000  0.000000      1.000000
 -0.046512  0.500000  0.000000      1.000000
 -0.023256  0.500000  0.000000      1.000000
 
 Following cartesian coordinates:
            Coordinates               Weight
  0.000000  0.000000  0.000000      1.000000
  0.006548  0.000000  0.000000      1.000000
  0.013095  0.000000  0.000000      1.000000
  0.019643  0.000000  0.000000      1.000000
  0.026191  0.000000  0.000000      1.000000
  0.032739  0.000000  0.000000      1.000000
  0.039286  0.000000  0.000000      1.000000
  0.045834  0.000000  0.000000      1.000000
  0.052382  0.000000  0.000000      1.000000
  0.058929  0.000000  0.000000      1.000000
  0.065477  0.000000  0.000000      1.000000
  0.072025  0.000000  0.000000      1.000000
  0.078572  0.000000  0.000000      1.000000
  0.085120  0.000000  0.000000      1.000000
  0.091668  0.000000  0.000000      1.000000
  0.098216  0.000000  0.000000      1.000000
  0.104763  0.000000  0.000000      1.000000
  0.111311  0.000000  0.000000      1.000000
  0.117859  0.000000  0.000000      1.000000
  0.124406  0.000000  0.000000      1.000000
  0.130954  0.000000  0.000000      1.000000
  0.137502  0.000000  0.000000      1.000000
 -0.137502  0.000000  0.000000      1.000000
 -0.130954  0.000000  0.000000      1.000000
 -0.124406  0.000000  0.000000      1.000000
 -0.117859  0.000000  0.000000      1.000000
 -0.111311  0.000000  0.000000      1.000000
 -0.104763  0.000000  0.000000      1.000000
 -0.098216  0.000000  0.000000      1.000000
 -0.091668  0.000000  0.000000      1.000000
 -0.085120  0.000000  0.000000      1.000000
 -0.078572  0.000000  0.000000      1.000000
 -0.072025  0.000000  0.000000      1.000000
 -0.065477  0.000000  0.000000      1.000000
 -0.058929  0.000000  0.000000      1.000000
 -0.052382  0.000000  0.000000      1.000000
 -0.045834  0.000000  0.000000      1.000000
 -0.039286  0.000000  0.000000      1.000000
 -0.032739  0.000000  0.000000      1.000000
 -0.026191  0.000000  0.000000      1.000000
 -0.019643  0.000000  0.000000      1.000000
 -0.013095  0.000000  0.000000      1.000000
 -0.006548  0.000000  0.000000      1.000000
  0.000000  0.117278  0.000000      1.000000
  0.006548  0.117278  0.000000      1.000000
  0.013095  0.117278  0.000000      1.000000
  0.019643  0.117278  0.000000      1.000000
  0.026191  0.117278  0.000000      1.000000
  0.032739  0.117278  0.000000      1.000000
  0.039286  0.117278  0.000000      1.000000
  0.045834  0.117278  0.000000      1.000000
  0.052382  0.117278  0.000000      1.000000
  0.058929  0.117278  0.000000      1.000000
  0.065477  0.117278  0.000000      1.000000
  0.072025  0.117278  0.000000      1.000000
  0.078572  0.117278  0.000000      1.000000
  0.085120  0.117278  0.000000      1.000000
  0.091668  0.117278  0.000000      1.000000
  0.098216  0.117278  0.000000      1.000000
  0.104763  0.117278  0.000000      1.000000
  0.111311  0.117278  0.000000      1.000000
  0.117859  0.117278  0.000000      1.000000
  0.124406  0.117278  0.000000      1.000000
  0.130954  0.117278  0.000000      1.000000
  0.137502  0.117278  0.000000      1.000000
 -0.137502  0.117278  0.000000      1.000000
 -0.130954  0.117278  0.000000      1.000000
 -0.124406  0.117278  0.000000      1.000000
 -0.117859  0.117278  0.000000      1.000000
 -0.111311  0.117278  0.000000      1.000000
 -0.104763  0.117278  0.000000      1.000000
 -0.098216  0.117278  0.000000      1.000000
 -0.091668  0.117278  0.000000      1.000000
 -0.085120  0.117278  0.000000      1.000000
 -0.078572  0.117278  0.000000      1.000000
 -0.072025  0.117278  0.000000      1.000000
 -0.065477  0.117278  0.000000      1.000000
 -0.058929  0.117278  0.000000      1.000000
 -0.052382  0.117278  0.000000      1.000000
 -0.045834  0.117278  0.000000      1.000000
 -0.039286  0.117278  0.000000      1.000000
 -0.032739  0.117278  0.000000      1.000000
 -0.026191  0.117278  0.000000      1.000000
 -0.019643  0.117278  0.000000      1.000000
 -0.013095  0.117278  0.000000      1.000000
 -0.006548  0.117278  0.000000      1.000000
 


--------------------------------------------------------------------------------------------------------




 Dimension of arrays:
   k-points           NKPTS =     86   k-points in BZ     NKDIM =     86   number of bands    NBANDS=     64
   number of dos      NEDOS =    301   number of ions     NIONS =     14
   non local maximal  LDIM  =      6   non local SUM 2l+1 LMDIM =     18
   total plane-waves  NPLWV =  96768
   max r-space proj   IRMAX =      1   max aug-charges    IRDMAX= 150372
   dimension x,y,z NGX =    28 NGY =   36 NGZ =   96
   dimension x,y,z NGXF=    56 NGYF=   72 NGZF=  192
   support grid    NGXF=   112 NGYF=  144 NGZF=  384
   ions per type =              10   4
   NGX,Y,Z   is equivalent  to a cutoff of  13.11, 14.04, 13.75 a.u.
   NGXF,Y,Z  is equivalent  to a cutoff of  26.21, 28.08, 27.51 a.u.

 SYSTEM =  V2O5 g_cv_lambda VBM_to_CBM             
 POSCAR =  V2O5 primitive cell reordered as O V for

 Startparameter for this run:
   NWRITE =      2    write-flag & timer
   PREC   = accura    normal or accurate (medium, high low for compatibility)
   ISTART =      0    job   : 0-new  1-cont  2-samecut
   ICHARG =      2    charge: 1-file 2-atom 10-const
   ISPIN  =      1    spin polarized calculation?
   LNONCOLLINEAR =      F non collinear calculations
   LSORBIT =      F    spin-orbit coupling
   INIWAV =      1    electr: 0-lowe 1-rand  2-diag
   LASPH  =      T    aspherical Exc in radial PAW
 Electronic Relaxation 1
   ENCUT  =  600.0 eV  44.10 Ry    6.64 a.u.   7.09  8.51 23.18*2*pi/ulx,y,z
   ENINI  =  600.0     initial cutoff
   ENAUG  =  605.4 eV  augmentation charge cutoff
   NELM   =     60;   NELMIN=  2; NELMDL= -5     # of ELM steps 
   EDIFF  = 0.1E-07   stopping-criterion for ELM
   LREAL  =      F    real-space projection
   NLSPLINE    = F    spline interpolate recip. space projectors
   LCOMPAT=      F    compatible to vasp.4.4
   GGA_COMPAT  = T    GGA compatible to vasp.4.4-vasp.4.6
   LMAXPAW     = -100 max onsite density
   LMAXMIX     =    2 max onsite mixed and CHGCAR
   VOSKOWN=      0    Vosko Wilk Nusair interpolation
   ROPT   =    0.00000   0.00000
 Ionic relaxation
   EDIFFG = 0.1E-06   stopping-criterion for IOM
   NSW    =      0    number of steps for IOM
   NBLOCK =      1;   KBLOCK =      1    inner block; outer block 
   IBRION =     -1    ionic relax: 0-MD 1-quasi-New 2-CG
   NFREE  =      0    steps in history (QN), initial steepest desc. (CG)
   ISIF   =      2    stress and relaxation
   IWAVPR =     10    prediction:  0-non 1-charg 2-wave 3-comb
   ISYM   =     -1    0-nonsym 1-usesym 2-fastsym
   LCORR  =      T    Harris-Foulkes like correction to forces

   POTIM  = 0.5000    time-step for ionic-motion
   TEIN   =    0.0    initial temperature
   TEBEG  =    0.0;   TEEND  =   0.0 temperature during run
   SMASS  =  -3.00    Nose mass-parameter (am)
   estimated Nose-frequenzy (Omega)   =  0.10E-29 period in steps = 0.13E+47 mass=  -0.288E-27a.u.
   SCALEE = 1.0000    scale energy and forces
   NPACO  =    256;   APACO  = 10.0  distance and # of slots for P.C.
   PSTRESS=    0.0 pullay stress

  Mass of Ions in am
   POMASS =  16.00 50.94
  Ionic Valenz
   ZVAL   =   6.00 13.00
  Atomic Wigner-Seitz radii
   RWIGS  =  -1.00 -1.00
  virtual crystal weights 
   VCA    =   1.00  1.00
   NELECT =     112.0000    total number of electrons
   NUPDOWN=      -1.0000    fix difference up-down

 DOS related values:
   EMIN   =  10.00;   EMAX   =-10.00  energy-range for DOS
   EFERMI =   0.00;   METHOD = MIDGAP      
   ISMEAR =     0;   SIGMA  =   0.01  broadening in eV -4-tet -1-fermi 0-gaus
   EFERMI_NEDOS =   21; number of points for ismear=-14 and -15

 Electronic relaxation 2 (details)
   IALGO  =     38    algorithm
   LDIAG  =      T    sub-space diagonalisation (order eigenvalues)
   LSUBROT=      F    optimize rotation matrix (better conditioning)
   TURBO    =      0    0=normal 1=particle mesh
   IRESTART =      0    0=no restart 2=restart with 2 vectors
   NREBOOT  =      0    no. of reboots
   NMIN     =      0    reboot dimension
   EREF     =   0.00    reference energy to select bands
   IMIX   =      4    mixing-type and parameters
     AMIX     =   0.40;   BMIX     =  1.00
     AMIX_MAG =   1.60;   BMIX_MAG =  1.00
     AMIN     =   0.10
     WC   =   100.;   INIMIX=   1;  MIXPRE=   1;  MAXMIX= -45

 Intra band minimization:
   WEIMIN = 0.0000     energy-eigenvalue tresh-hold
   EBREAK =  0.39E-10  absolut break condition
   DEPER  =   0.30     relativ break condition  

   TIME   =   0.40     timestep for ELM

  volume/ion in A,a.u.               =      12.55        84.70
  Fermi-wavevector in a.u.,A,eV,Ry     =   1.408883  2.662403 27.006913  1.984952
  Thomas-Fermi vector in A             =   2.530996
 
 Write flags
   LWAVE        =      F    write WAVECAR
   LDOWNSAMPLE  =      F    k-point downsampling of WAVECAR
   LCHARG       =      F    write CHGCAR
   LVTOT        =      F    write LOCPOT, total local potential
   LVHAR        =      F    write LOCPOT, Hartree potential only
   WRT_POTENTIAL= false  ! write potential to hdf5 file
   LELF         =      F    write electronic localiz. function (ELF)
   LORBIT       =      0    0 simple, 1 ext, 2 COOP (PROOUT), +10 PAW based schemes


 Python interface
   PLUGINS active      =      F    recompile with -DPLUGINS to activate
 
 Dipole corrections
   LMONO      =      F    monopole corrections only (constant potential shift)
   LDIPOL     =      F    correct potential (dipole corrections)
   IDIPOL     =      0    1-x, 2-y, 3-z, 4-all directions 
   EPSILON    =  1.0000000 bulk dielectric constant
   LVACPOTAV  =      F  vacuum potentials using an averaging scheme for the charge density
   VACPOTFLAT =  0.1000000 required flatness to determine vacuum potential
 
Coulomb truncation method
  LTRUNCATE          =      F  Coulomb kernel truncation to be used
  IDIMENSIONALITY    =      3  Dimensionality of cutoff (0 molecules / 2 surfaces)
  ISURFACE           =     -1  Direction of surface normal
  LCOARSEN           =      F  Coarsen the charge grid before padding, preferred

 
 Exchange correlation treatment:
   GGA     = PE    functional components
   XC_C    = 1    coefficients multiplying the functional components
   LIBXC   =     F    Libxc                    
   VOSKOWN =     0    Vosko Wilk Nusair interpolation
   LHFCALC =     F    Hartree Fock is set to
   LHFONE  =     F    Hartree Fock one center treatment
   AEXX    =    0.0000 exact exchange contribution

 Parameters of functionals:
   PE:
     No parameter
 
 Van der Waals corrections
   IVDW    =     0    specifies the selected vdW correction

 Linear response parameters
   LEPSILON=     F    determine dielectric tensor
   LRPA    =     F    only Hartree local field effects (RPA)
   LNABLA  =     F    use nabla operator in PAW spheres
   LVEL    =     F    velocity operator in full k-point grid
   CSHIFT  =0.1000    complex shift for real part using Kramers Kronig
   OMEGAMAX=  -1.0    maximum frequency
   DEG_THRESHOLD= 0.2000000E-02 threshold for treating states as degnerate
   RTIME   =   -0.100 relaxation time in fs
  (WPLASMAI=    0.000 imaginary part of plasma frequency in eV, 0.658/RTIME)
   DFIELD  = 0.0000000 0.0000000 0.0000000 field for delta impulse in time
 
  Optional k-point grid parameters
   LKPOINTS_OPT  =     F    use optional k-point grid
   KPOINTS_OPT_MODE=     2    mode for optional k-point grid
 
 Orbital magnetization related:
   ORBITALMAG=     F  switch on orbital magnetization
   LCHIMAG   =     F  perturbation theory with respect to B field
   DQ        =  0.001000  dq finite difference perturbation B field
   LLRAUG    =     F  two centre corrections for induced B field
   LBONE     =     F  B-component reconstruction in AE one-centre
   LVGVCALC  =     T  calculate vGv susceptibility
   LVGVAPPL  =     F  apply vGv susceptibility instead of pGv for G=0

 Random number generation:
   RANDOM_GENERATOR = DEFAULT
   PCG_SEED         = not used


--------------------------------------------------------------------------------------------------------


 Static calculation
 charge density and potential will be updated during run
 non-spin polarized calculation
 Variant of blocked Davidson
 Davidson routine will perform the subspace rotation
 perform sub-space diagonalisation
    after iterative eigenvector-optimisation
 modified Broyden-mixing scheme, WC =      100.0
 initial mixing is a Kerker type mixing with AMIX =  0.4000 and BMIX =      1.0000
 Hartree-type preconditioning will be used
 using additional bands            8
 reciprocal scheme for non local part
 use partial core corrections
 calculate Harris-corrections to forces 
   (improved forces if not selfconsistent)
 use gradient corrections 
 use of overlap-Matrix (Vanderbilt PP)
 Gauss-broadening in eV      SIGMA  =   0.01


--------------------------------------------------------------------------------------------------------


  energy-cutoff  :      600.00
  volume of cell :      175.72
      direct lattice vectors                 reciprocal lattice vectors
     3.551749810  0.000000000  0.000000000     0.281551363  0.000000000  0.000000000
    -0.000000000  4.263357790  0.000000000     0.000000000  0.234556903  0.000000000
     0.000000000  0.000000000 11.604417110    -0.000000000 -0.000000000  0.086174083

  length of vectors
     3.551749810  4.263357790 11.604417110     0.281551363  0.234556903  0.086174083


 
 k-points in units of 2pi/SCALE and weight: Automatic mesh                          
   0.00000000  0.00000000  0.00000000       0.012
   0.00654771  0.00000000  0.00000000       0.012
   0.01309541  0.00000000  0.00000000       0.012
   0.01964312  0.00000000  0.00000000       0.012
   0.02619082  0.00000000  0.00000000       0.012
   0.03273853  0.00000000  0.00000000       0.012
   0.03928624  0.00000000  0.00000000       0.012
   0.04583394  0.00000000  0.00000000       0.012
   0.05238165  0.00000000  0.00000000       0.012
   0.05892936  0.00000000  0.00000000       0.012
   0.06547706  0.00000000  0.00000000       0.012
   0.07202477  0.00000000  0.00000000       0.012
   0.07857247  0.00000000  0.00000000       0.012
   0.08512018  0.00000000  0.00000000       0.012
   0.09166789  0.00000000  0.00000000       0.012
   0.09821559  0.00000000  0.00000000       0.012
   0.10476330  0.00000000  0.00000000       0.012
   0.11131100  0.00000000  0.00000000       0.012
   0.11785871  0.00000000  0.00000000       0.012
   0.12440642  0.00000000  0.00000000       0.012
   0.13095412  0.00000000  0.00000000       0.012
   0.13750183  0.00000000  0.00000000       0.012
  -0.13750183  0.00000000  0.00000000       0.012
  -0.13095412  0.00000000  0.00000000       0.012
  -0.12440642  0.00000000  0.00000000       0.012
  -0.11785871  0.00000000  0.00000000       0.012
  -0.11131100  0.00000000  0.00000000       0.012
  -0.10476330  0.00000000  0.00000000       0.012
  -0.09821559  0.00000000  0.00000000       0.012
  -0.09166789  0.00000000  0.00000000       0.012
  -0.08512018  0.00000000  0.00000000       0.012
  -0.07857247  0.00000000  0.00000000       0.012
  -0.07202477  0.00000000  0.00000000       0.012
  -0.06547706  0.00000000  0.00000000       0.012
  -0.05892936  0.00000000  0.00000000       0.012
  -0.05238165  0.00000000  0.00000000       0.012
  -0.04583394  0.00000000  0.00000000       0.012
  -0.03928624  0.00000000  0.00000000       0.012
  -0.03273853  0.00000000  0.00000000       0.012
  -0.02619082  0.00000000  0.00000000       0.012
  -0.01964312  0.00000000  0.00000000       0.012
  -0.01309541  0.00000000  0.00000000       0.012
  -0.00654771  0.00000000  0.00000000       0.012
   0.00000000  0.11727845  0.00000000       0.012
   0.00654771  0.11727845  0.00000000       0.012
   0.01309541  0.11727845  0.00000000       0.012
   0.01964312  0.11727845  0.00000000       0.012
   0.02619082  0.11727845  0.00000000       0.012
   0.03273853  0.11727845  0.00000000       0.012
   0.03928624  0.11727845  0.00000000       0.012
   0.04583394  0.11727845  0.00000000       0.012
   0.05238165  0.11727845  0.00000000       0.012
   0.05892936  0.11727845  0.00000000       0.012
   0.06547706  0.11727845  0.00000000       0.012
   0.07202477  0.11727845  0.00000000       0.012
   0.07857247  0.11727845  0.00000000       0.012
   0.08512018  0.11727845  0.00000000       0.012
   0.09166789  0.11727845  0.00000000       0.012
   0.09821559  0.11727845  0.00000000       0.012
   0.10476330  0.11727845  0.00000000       0.012
   0.11131100  0.11727845  0.00000000       0.012
   0.11785871  0.11727845  0.00000000       0.012
   0.12440642  0.11727845  0.00000000       0.012
   0.13095412  0.11727845  0.00000000       0.012
   0.13750183  0.11727845  0.00000000       0.012
  -0.13750183  0.11727845  0.00000000       0.012
  -0.13095412  0.11727845  0.00000000       0.012
  -0.12440642  0.11727845  0.00000000       0.012
  -0.11785871  0.11727845  0.00000000       0.012
  -0.11131100  0.11727845  0.00000000       0.012
  -0.10476330  0.11727845  0.00000000       0.012
  -0.09821559  0.11727845  0.00000000       0.012
  -0.09166789  0.11727845  0.00000000       0.012
  -0.08512018  0.11727845  0.00000000       0.012
  -0.07857247  0.11727845  0.00000000       0.012
  -0.07202477  0.11727845  0.00000000       0.012
  -0.06547706  0.11727845  0.00000000       0.012
  -0.05892936  0.11727845  0.00000000       0.012
  -0.05238165  0.11727845  0.00000000       0.012
  -0.04583394  0.11727845  0.00000000       0.012
  -0.03928624  0.11727845  0.00000000       0.012
  -0.03273853  0.11727845  0.00000000       0.012
  -0.02619082  0.11727845  0.00000000       0.012
  -0.01964312  0.11727845  0.00000000       0.012
  -0.01309541  0.11727845  0.00000000       0.012
  -0.00654771  0.11727845  0.00000000       0.012
 
 k-points in reciprocal lattice and weights: Automatic mesh                          
   0.00000000  0.00000000  0.00000000       0.012
   0.02325581  0.00000000  0.00000000       0.012
   0.04651163  0.00000000  0.00000000       0.012
   0.06976744  0.00000000  0.00000000       0.012
   0.09302326  0.00000000  0.00000000       0.012
   0.11627907  0.00000000  0.00000000       0.012
   0.13953488  0.00000000  0.00000000       0.012
   0.16279070  0.00000000  0.00000000       0.012
   0.18604651  0.00000000  0.00000000       0.012
   0.20930233  0.00000000  0.00000000       0.012
   0.23255814  0.00000000  0.00000000       0.012
   0.25581395  0.00000000  0.00000000       0.012
   0.27906977  0.00000000  0.00000000       0.012
   0.30232558  0.00000000  0.00000000       0.012
   0.32558140  0.00000000  0.00000000       0.012
   0.34883721  0.00000000  0.00000000       0.012
   0.37209302  0.00000000  0.00000000       0.012
   0.39534884  0.00000000  0.00000000       0.012
   0.41860465  0.00000000  0.00000000       0.012
   0.44186047  0.00000000  0.00000000       0.012
   0.46511628  0.00000000  0.00000000       0.012
   0.48837209  0.00000000  0.00000000       0.012
  -0.48837209  0.00000000  0.00000000       0.012
  -0.46511628  0.00000000  0.00000000       0.012
  -0.44186047  0.00000000  0.00000000       0.012
  -0.41860465  0.00000000  0.00000000       0.012
  -0.39534884  0.00000000  0.00000000       0.012
  -0.37209302  0.00000000  0.00000000       0.012
  -0.34883721  0.00000000  0.00000000       0.012
  -0.32558140  0.00000000  0.00000000       0.012
  -0.30232558  0.00000000  0.00000000       0.012
  -0.27906977  0.00000000  0.00000000       0.012
  -0.25581395  0.00000000  0.00000000       0.012
  -0.23255814  0.00000000  0.00000000       0.012
  -0.20930233  0.00000000  0.00000000       0.012
  -0.18604651  0.00000000  0.00000000       0.012
  -0.16279070  0.00000000  0.00000000       0.012
  -0.13953488  0.00000000  0.00000000       0.012
  -0.11627907  0.00000000  0.00000000       0.012
  -0.09302326  0.00000000  0.00000000       0.012
  -0.06976744  0.00000000  0.00000000       0.012
  -0.04651163  0.00000000  0.00000000       0.012
  -0.02325581  0.00000000  0.00000000       0.012
   0.00000000  0.50000000  0.00000000       0.012
   0.02325581  0.50000000  0.00000000       0.012
   0.04651163  0.50000000  0.00000000       0.012
   0.06976744  0.50000000  0.00000000       0.012
   0.09302326  0.50000000  0.00000000       0.012
   0.11627907  0.50000000  0.00000000       0.012
   0.13953488  0.50000000  0.00000000       0.012
   0.16279070  0.50000000  0.00000000       0.012
   0.18604651  0.50000000  0.00000000       0.012
   0.20930233  0.50000000  0.00000000       0.012
   0.23255814  0.50000000  0.00000000       0.012
   0.25581395  0.50000000  0.00000000       0.012
   0.27906977  0.50000000  0.00000000       0.012
   0.30232558  0.50000000  0.00000000       0.012
   0.32558140  0.50000000  0.00000000       0.012
   0.34883721  0.50000000  0.00000000       0.012
   0.37209302  0.50000000  0.00000000       0.012
   0.39534884  0.50000000  0.00000000       0.012
   0.41860465  0.50000000  0.00000000       0.012
   0.44186047  0.50000000  0.00000000       0.012
   0.46511628  0.50000000  0.00000000       0.012
   0.48837209  0.50000000  0.00000000       0.012
  -0.48837209  0.50000000  0.00000000       0.012
  -0.46511628  0.50000000  0.00000000       0.012
  -0.44186047  0.50000000  0.00000000       0.012
  -0.41860465  0.50000000  0.00000000       0.012
  -0.39534884  0.50000000  0.00000000       0.012
  -0.37209302  0.50000000  0.00000000       0.012
  -0.34883721  0.50000000  0.00000000       0.012
  -0.32558140  0.50000000  0.00000000       0.012
  -0.30232558  0.50000000  0.00000000       0.012
  -0.27906977  0.50000000  0.00000000       0.012
  -0.25581395  0.50000000  0.00000000       0.012
  -0.23255814  0.50000000  0.00000000       0.012
  -0.20930233  0.50000000  0.00000000       0.012
  -0.18604651  0.50000000  0.00000000       0.012
  -0.16279070  0.50000000  0.00000000       0.012
  -0.13953488  0.50000000  0.00000000       0.012
  -0.11627907  0.50000000  0.00000000       0.012
  -0.09302326  0.50000000  0.00000000       0.012
  -0.06976744  0.50000000  0.00000000       0.012
  -0.04651163  0.50000000  0.00000000       0.012
  -0.02325581  0.50000000  0.00000000       0.012
 
 position of ions in fractional coordinates (direct lattice) 
   0.00000000  0.99364297  0.00000000
   0.00000000  0.51399772  0.14668400
   0.50000000  0.99415756  0.18189999
   0.00000000  0.00584244  0.31810001
   0.50000000  0.48600228  0.35331600
   0.50000000  0.00635703  0.50000000
   0.50000000  0.48600228  0.64668400
   0.00000000  0.00584244  0.68189999
   0.50000000  0.99415756  0.81810001
   0.00000000  0.51399772  0.85331600
   0.00000000  0.88858704  0.14829965
   0.50000000  0.11141296  0.35170035
   0.50000000  0.11141296  0.64829965
   0.00000000  0.88858704  0.85170035
 
 position of ions in cartesian coordinates  (Angst):
  -0.00000000  4.23625550  0.00000000
  -0.00000000  2.19135618  1.70218232
   1.77587490  4.23844938  2.11084336
  -0.00000000  0.02490841  3.69136520
   1.77587490  2.07200161  4.10002624
   1.77587491  0.02710229  5.80220855
   1.77587490  2.07200161  7.50439087
  -0.00000000  0.02490841  7.91305191
   1.77587490  4.23844938  9.49357375
  -0.00000000  2.19135618  9.90223479
  -0.00000000  3.78836448  1.72093100
   1.77587491  0.47499331  4.08127756
   1.77587491  0.47499331  7.52313955
  -0.00000000  3.78836448  9.88348611
 


--------------------------------------------------------------------------------------------------------


 k-point     1 :   0.0000 0.0000 0.0000  plane waves:    5869
 k-point     2 :   0.0233 0.0000 0.0000  plane waves:    5885
 k-point     3 :   0.0465 0.0000 0.0000  plane waves:    5865
 k-point     4 :   0.0698 0.0000 0.0000  plane waves:    5863
 k-point     5 :   0.0930 0.0000 0.0000  plane waves:    5843
 k-point     6 :   0.1163 0.0000 0.0000  plane waves:    5860
 k-point     7 :   0.1395 0.0000 0.0000  plane waves:    5874
 k-point     8 :   0.1628 0.0000 0.0000  plane waves:    5868
 k-point     9 :   0.1860 0.0000 0.0000  plane waves:    5870
 k-point    10 :   0.2093 0.0000 0.0000  plane waves:    5870
 k-point    11 :   0.2326 0.0000 0.0000  plane waves:    5856
 k-point    12 :   0.2558 0.0000 0.0000  plane waves:    5856
 k-point    13 :   0.2791 0.0000 0.0000  plane waves:    5868
 k-point    14 :   0.3023 0.0000 0.0000  plane waves:    5876
 k-point    15 :   0.3256 0.0000 0.0000  plane waves:    5872
 k-point    16 :   0.3488 0.0000 0.0000  plane waves:    5876
 k-point    17 :   0.3721 0.0000 0.0000  plane waves:    5894
 k-point    18 :   0.3953 0.0000 0.0000  plane waves:    5906
 k-point    19 :   0.4186 0.0000 0.0000  plane waves:    5900
 k-point    20 :   0.4419 0.0000 0.0000  plane waves:    5894
 k-point    21 :   0.4651 0.0000 0.0000  plane waves:    5888
 k-point    22 :   0.4884 0.0000 0.0000  plane waves:    5882
 k-point    23 :  -0.4884 0.0000 0.0000  plane waves:    5882
 k-point    24 :  -0.4651 0.0000 0.0000  plane waves:    5888
 k-point    25 :  -0.4419 0.0000 0.0000  plane waves:    5894
 k-point    26 :  -0.4186 0.0000 0.0000  plane waves:    5900
 k-point    27 :  -0.3953 0.0000 0.0000  plane waves:    5906
 k-point    28 :  -0.3721 0.0000 0.0000  plane waves:    5894
 k-point    29 :  -0.3488 0.0000 0.0000  plane waves:    5876
 k-point    30 :  -0.3256 0.0000 0.0000  plane waves:    5872
 k-point    31 :  -0.3023 0.0000 0.0000  plane waves:    5876
 k-point    32 :  -0.2791 0.0000 0.0000  plane waves:    5868
 k-point    33 :  -0.2558 0.0000 0.0000  plane waves:    5856
 k-point    34 :  -0.2326 0.0000 0.0000  plane waves:    5856
 k-point    35 :  -0.2093 0.0000 0.0000  plane waves:    5870
 k-point    36 :  -0.1860 0.0000 0.0000  plane waves:    5870
 k-point    37 :  -0.1628 0.0000 0.0000  plane waves:    5868
 k-point    38 :  -0.1395 0.0000 0.0000  plane waves:    5874
 k-point    39 :  -0.1163 0.0000 0.0000  plane waves:    5860
 k-point    40 :  -0.0930 0.0000 0.0000  plane waves:    5843
 k-point    41 :  -0.0698 0.0000 0.0000  plane waves:    5863
 k-point    42 :  -0.0465 0.0000 0.0000  plane waves:    5865
 k-point    43 :  -0.0233 0.0000 0.0000  plane waves:    5885
 k-point    44 :   0.0000 0.5000 0.0000  plane waves:    5802
 k-point    45 :   0.0233 0.5000 0.0000  plane waves:    5822
 k-point    46 :   0.0465 0.5000 0.0000  plane waves:    5838
 k-point    47 :   0.0698 0.5000 0.0000  plane waves:    5830
 k-point    48 :   0.0930 0.5000 0.0000  plane waves:    5836
 k-point    49 :   0.1163 0.5000 0.0000  plane waves:    5828
 k-point    50 :   0.1395 0.5000 0.0000  plane waves:    5836
 k-point    51 :   0.1628 0.5000 0.0000  plane waves:    5856
 k-point    52 :   0.1860 0.5000 0.0000  plane waves:    5868
 k-point    53 :   0.2093 0.5000 0.0000  plane waves:    5860
 k-point    54 :   0.2326 0.5000 0.0000  plane waves:    5858
 k-point    55 :   0.2558 0.5000 0.0000  plane waves:    5858
 k-point    56 :   0.2791 0.5000 0.0000  plane waves:    5862
 k-point    57 :   0.3023 0.5000 0.0000  plane waves:    5858
 k-point    58 :   0.3256 0.5000 0.0000  plane waves:    5842
 k-point    59 :   0.3488 0.5000 0.0000  plane waves:    5850
 k-point    60 :   0.3721 0.5000 0.0000  plane waves:    5852
 k-point    61 :   0.3953 0.5000 0.0000  plane waves:    5840
 k-point    62 :   0.4186 0.5000 0.0000  plane waves:    5824
 k-point    63 :   0.4419 0.5000 0.0000  plane waves:    5822
 k-point    64 :   0.4651 0.5000 0.0000  plane waves:    5826
 k-point    65 :   0.4884 0.5000 0.0000  plane waves:    5836
 k-point    66 :  -0.4884 0.5000 0.0000  plane waves:    5836
 k-point    67 :  -0.4651 0.5000 0.0000  plane waves:    5826
 k-point    68 :  -0.4419 0.5000 0.0000  plane waves:    5822
 k-point    69 :  -0.4186 0.5000 0.0000  plane waves:    5824
 k-point    70 :  -0.3953 0.5000 0.0000  plane waves:    5840
 k-point    71 :  -0.3721 0.5000 0.0000  plane waves:    5852
 k-point    72 :  -0.3488 0.5000 0.0000  plane waves:    5850
 k-point    73 :  -0.3256 0.5000 0.0000  plane waves:    5842
 k-point    74 :  -0.3023 0.5000 0.0000  plane waves:    5858
 k-point    75 :  -0.2791 0.5000 0.0000  plane waves:    5862
 k-point    76 :  -0.2558 0.5000 0.0000  plane waves:    5858
 k-point    77 :  -0.2326 0.5000 0.0000  plane waves:    5858
 k-point    78 :  -0.2093 0.5000 0.0000  plane waves:    5860
 k-point    79 :  -0.1860 0.5000 0.0000  plane waves:    5868
 k-point    80 :  -0.1628 0.5000 0.0000  plane waves:    5856
 k-point    81 :  -0.1395 0.5000 0.0000  plane waves:    5836
 k-point    82 :  -0.1163 0.5000 0.0000  plane waves:    5828
 k-point    83 :  -0.0930 0.5000 0.0000  plane waves:    5836
 k-point    84 :  -0.0698 0.5000 0.0000  plane waves:    5830
 k-point    85 :  -0.0465 0.5000 0.0000  plane waves:    5838
 k-point    86 :  -0.0233 0.5000 0.0000  plane waves:    5822

 maximum and minimum number of plane-waves per node :      5906     5802

 maximum number of plane-waves:      5906
 maximum index in each direction: 
   IXMAX=    7   IYMAX=    8   IZMAX=   23
   IXMIN=   -7   IYMIN=   -9   IZMIN=  -23


 serial   3D FFT for wavefunctions
 parallel 3D FFT for charge:
    minimum data exchange during FFTs selected (reduces bandwidth)


 total amount of memory used by VASP MPI-rank0   204678. kBytes
=======================================================================

   base                                    :      30000. kBytes
   nonl-proj                               :     147952. kBytes
   fftplans                                :       4331. kBytes
   grid                                    :       5446. kBytes
   one-center                              :        217. kBytes
   wavefun                                 :      16732. kBytes
 
     INWAV:  cpu time      0.0000: real time      0.0000
 Broyden mixing: mesh for mixing (old mesh)
   NGX = 15   NGY = 17   NGZ = 47
  (NGX  = 56   NGY  = 72   NGZ  =192)
  gives a total of  11985 points

 initial charge density was supplied:
 charge density of overlapping atoms calculated
 number of electron     112.0000000 magnetization 
 keeping initial charge density in first step


--------------------------------------------------------------------------------------------------------


 Maximum index for augmentation-charges         6053 (set IRDMAX)


--------------------------------------------------------------------------------------------------------


 First call to EWALD:  gamma=   0.316
 Maximum number of real-space cells   4x   3x   2
 Maximum number of reciprocal cells   2x   2x   5

    FEWALD:  cpu time      0.0142: real time      0.0208


--------------------------------------- Ionic step        1  -------------------------------------------




--------------------------------------- Iteration      1(   1)  ---------------------------------------


    POTLOK:  cpu time      0.1523: real time      0.1766
    SETDIJ:  cpu time      0.1821: real time      0.1883
     EDDAV:  cpu time     10.7377: real time     10.9729
       DOS:  cpu time      0.0594: real time      0.0679
    --------------------------------------------
      LOOP:  cpu time     11.1321: real time     11.4084

 eigenvalue-minimisations  : 11008
 total energy-change (2. order) : 0.1393230E+04  (-0.7416263E+04)
 number of electron     112.0000000 magnetization 
 augmentation part      112.0000000 magnetization 

 Free energy of the ion-electron system (eV)
  ---------------------------------------------------
  alpha Z        PSCENC =       387.22977362
  Ewald energy   TEWEN  =     -6896.74286115
  -Hartree energ DENC   =     -4500.01457308
  -exchange      EXHF   =         0.00000000
  -V(xc)+E(xc)   XCENC  =       559.97802296
  PAW double counting   =      9649.56316141    -9729.15350018
  entropy T*S    EENTRO =        -0.00026827
  eigenvalues    EBANDS =      -209.68717951
  atomic energy  EATOM  =     12132.05744894
  Solvation  Ediel_sol  =         0.00000000
  ---------------------------------------------------
  free energy    TOTEN  =      1393.23002473 eV

  energy without entropy =     1393.23029301  energy(sigma->0) =     1393.23015887


--------------------------------------------------------------------------------------------------------




--------------------------------------- Iteration      1(   2)  ---------------------------------------


     EDDAV:  cpu time     23.4707: real time     23.9229
       DOS:  cpu time      0.0012: real time      0.0064
    --------------------------------------------
      LOOP:  cpu time     23.4720: real time     23.9292

 eigenvalue-minimisations  : 16512
 total energy-change (2. order) :-0.1490527E+04  (-0.1484772E+04)
 number of electron     112.0000000 magnetization 
 augmentation part      112.0000000 magnetization 

 Free energy of the ion-electron system (eV)
  ---------------------------------------------------
  alpha Z        PSCENC =       387.22977362
  Ewald energy   TEWEN  =     -6896.74286115
  -Hartree energ DENC   =     -4500.01457308
  -exchange      EXHF   =         0.00000000
  -V(xc)+E(xc)   XCENC  =       559.97802296
  PAW double counting   =      9649.56316141    -9729.15350018
  entropy T*S    EENTRO =         0.00000000
  eigenvalues    EBANDS =     -1700.21416331
  atomic energy  EATOM  =     12132.05744894
  Solvation  Ediel_sol  =         0.00000000
  ---------------------------------------------------
  free energy    TOTEN  =       -97.29669080 eV

  energy without entropy =      -97.29669080  energy(sigma->0) =      -97.29669080


--------------------------------------------------------------------------------------------------------




--------------------------------------- Iteration      1(   3)  ---------------------------------------


     EDDAV:  cpu time     10.0395: real time     10.3818
       DOS:  cpu time      0.0013: real time      0.0013
    --------------------------------------------
      LOOP:  cpu time     10.0405: real time     10.3810

 eigenvalue-minimisations  : 11008
 total energy-change (2. order) :-0.6296567E+02  (-0.6295918E+02)
 number of electron     112.0000000 magnetization 
 augmentation part      112.0000000 magnetization 

 Free energy of the ion-electron system (eV)
  ---------------------------------------------------
  alpha Z        PSCENC =       387.22977362
  Ewald energy   TEWEN  =     -6896.74286115
  -Hartree energ DENC   =     -4500.01457308
  -exchange      EXHF   =         0.00000000
  -V(xc)+E(xc)   XCENC  =       559.97802296
  PAW double counting   =      9649.56316141    -9729.15350018
  entropy T*S    EENTRO =         0.00000000
  eigenvalues    EBANDS =     -1763.17983246
  atomic energy  EATOM  =     12132.05744894
  Solvation  Ediel_sol  =         0.00000000
  ---------------------------------------------------
  free energy    TOTEN  =      -160.26235994 eV

  energy without entropy =     -160.26235994  energy(sigma->0) =     -160.26235994


--------------------------------------------------------------------------------------------------------




--------------------------------------- Iteration      1(   4)  ---------------------------------------


     EDDAV:  cpu time     17.5390: real time     17.7832
       DOS:  cpu time      0.0031: real time      0.0031
    --------------------------------------------
      LOOP:  cpu time     17.5422: real time     17.7864

 eigenvalue-minimisations  : 16512
 total energy-change (2. order) :-0.7896746E+00  (-0.7896490E+00)
 number of electron     112.0000000 magnetization 
 augmentation part      112.0000000 magnetization 

 Free energy of the ion-electron system (eV)
  ---------------------------------------------------
  alpha Z        PSCENC =       387.22977362
  Ewald energy   TEWEN  =     -6896.74286115
  -Hartree energ DENC   =     -4500.01457308
  -exchange      EXHF   =         0.00000000
  -V(xc)+E(xc)   XCENC  =       559.97802296
  PAW double counting   =      9649.56316141    -9729.15350018
  entropy T*S    EENTRO =         0.00000000
  eigenvalues    EBANDS =     -1763.96950710
  atomic energy  EATOM  =     12132.05744894
  Solvation  Ediel_sol  =         0.00000000
  ---------------------------------------------------
  free energy    TOTEN  =      -161.05203458 eV

  energy without entropy =     -161.05203458  energy(sigma->0) =     -161.05203458


--------------------------------------------------------------------------------------------------------




--------------------------------------- Iteration      1(   5)  ---------------------------------------


     EDDAV:  cpu time     10.7596: real time     10.7865
       DOS:  cpu time      0.0010: real time      0.0010
    CHARGE:  cpu time      0.4662: real time      0.5442
    MIXING:  cpu time      0.0315: real time      0.0482
    --------------------------------------------
      LOOP:  cpu time     11.2579: real time     11.3794

 eigenvalue-minimisations  : 11264
 total energy-change (2. order) :-0.7312259E-02  (-0.7312253E-02)
 number of electron     112.0000001 magnetization 
 augmentation part       22.7130600 magnetization 

 Broyden mixing:
  rms(total) = 0.93028E+01    rms(broyden)= 0.93027E+01
  rms(prec ) = 0.99304E+01
  weight for this iteration     100.00

 Free energy of the ion-electron system (eV)
  ---------------------------------------------------
  alpha Z        PSCENC =       387.22977362
  Ewald energy   TEWEN  =     -6896.74286115
  -Hartree energ DENC   =     -4500.01457308
  -exchange      EXHF   =         0.00000000
  -V(xc)+E(xc)   XCENC  =       559.97802296
  PAW double counting   =      9649.56316141    -9729.15350018
  entropy T*S    EENTRO =         0.00000000
  eigenvalues    EBANDS =     -1763.97681936
  atomic energy  EATOM  =     12132.05744894
  Solvation  Ediel_sol  =         0.00000000
  ---------------------------------------------------
  free energy    TOTEN  =      -161.05934684 eV

  energy without entropy =     -161.05934684  energy(sigma->0) =     -161.05934684


--------------------------------------------------------------------------------------------------------




--------------------------------------- Iteration      1(   6)  ---------------------------------------


    POTLOK:  cpu time      0.0257: real time      0.0260
    SETDIJ:  cpu time      0.1565: real time      0.1569
     EDDAV:  cpu time     15.3991: real time     15.4400
       DOS:  cpu time      0.0016: real time      0.0041
    CHARGE:  cpu time      0.4400: real time      0.4428
    MIXING:  cpu time      0.0093: real time      0.0093
    --------------------------------------------
      LOOP:  cpu time     16.0322: real time     16.0790

 eigenvalue-minimisations  : 14912
 total energy-change (2. order) : 0.1043394E+02  (-0.8897989E+02)
 number of electron     112.0000001 magnetization 
 augmentation part       30.9462214 magnetization 

 Broyden mixing:
  rms(total) = 0.67188E+01    rms(broyden)= 0.67183E+01
  rms(prec ) = 0.87195E+01
  weight for this iteration     100.00

 eigenvalues of (default mixing * dielectric matrix)
  average eigenvalue GAMMA=   0.6242
  0.6242

 Free energy of the ion-electron system (eV)
  ---------------------------------------------------
  alpha Z        PSCENC =       387.22977362
  Ewald energy   TEWEN  =     -6896.74286115
  -Hartree energ DENC   =     -4367.86199372
  -exchange      EXHF   =         0.00000000
  -V(xc)+E(xc)   XCENC  =       562.46286435
  PAW double counting   =     12110.36052375   -12201.14863513
  entropy T*S    EENTRO =        -0.00034859
  eigenvalues    EBANDS =     -1876.98217879
  atomic energy  EATOM  =     12132.05744894
  Solvation  Ediel_sol  =         0.00000000
  ---------------------------------------------------
  free energy    TOTEN  =      -150.62540673 eV

  energy without entropy =     -150.62505814  energy(sigma->0) =     -150.62523243


--------------------------------------------------------------------------------------------------------




--------------------------------------- Iteration      1(   7)  ---------------------------------------


    POTLOK:  cpu time      0.0240: real time      0.0246
    SETDIJ:  cpu time      0.1487: real time      0.1489
     EDDAV:  cpu time     16.4257: real time     16.4640
       DOS:  cpu time      0.0011: real time      0.0011
    CHARGE:  cpu time      0.4299: real time      0.4328
    MIXING:  cpu time      0.0052: real time      0.0059
    --------------------------------------------
      LOOP:  cpu time     17.0346: real time     17.0773

 eigenvalue-minimisations  : 16448
 total energy-change (2. order) : 0.7023599E+01  (-0.1383774E+03)
 number of electron     112.0000001 magnetization 
 augmentation part       22.3043461 magnetization 

 Broyden mixing:
  rms(total) = 0.56484E+01    rms(broyden)= 0.56482E+01
  rms(prec ) = 0.62658E+01
  weight for this iteration     100.00

 eigenvalues of (default mixing * dielectric matrix)
  average eigenvalue GAMMA=   1.2614
  2.1582  0.3646

 Free energy of the ion-electron system (eV)
  ---------------------------------------------------
  alpha Z        PSCENC =       387.22977362
  Ewald energy   TEWEN  =     -6896.74286115
  -Hartree energ DENC   =     -4579.41110206
  -exchange      EXHF   =         0.00000000
  -V(xc)+E(xc)   XCENC  =       565.02934822
  PAW double counting   =     12874.03249682   -12965.76426328
  entropy T*S    EENTRO =         0.00000000
  eigenvalues    EBANDS =     -1660.03264929
  atomic energy  EATOM  =     12132.05744894
  Solvation  Ediel_sol  =         0.00000000
  ---------------------------------------------------
  free energy    TOTEN  =      -143.60180819 eV

  energy without entropy =     -143.60180819  energy(sigma->0) =     -143.60180819


--------------------------------------------------------------------------------------------------------




--------------------------------------- Iteration      1(   8)  ---------------------------------------


    POTLOK:  cpu time      0.0236: real time      0.0240
    SETDIJ:  cpu time      0.1384: real time      0.1385
     EDDAV:  cpu time     12.1429: real time     12.1705
       DOS:  cpu time      0.0010: real time      0.0010
    CHARGE:  cpu time      0.4357: real time      0.4368
    MIXING:  cpu time      0.0018: real time      0.0018
    --------------------------------------------
      LOOP:  cpu time     12.7436: real time     12.7727

 eigenvalue-minimisations  : 12512
 total energy-change (2. order) : 0.1899277E+02  (-0.4396087E+01)
 number of electron     112.0000001 magnetization 
 augmentation part       23.2914131 magnetization 

 Broyden mixing:
  rms(total) = 0.23371E+01    rms(broyden)= 0.23371E+01
  rms(prec ) = 0.28897E+01
  weight for this iteration     100.00

 eigenvalues of (default mixing * dielectric matrix)
  average eigenvalue GAMMA=   1.1194
  0.3900  0.9722  1.9960

 Free energy of the ion-electron system (eV)
  ---------------------------------------------------
  alpha Z        PSCENC =       387.22977362
  Ewald energy   TEWEN  =     -6896.74286115
  -Hartree energ DENC   =     -4500.80897889
  -exchange      EXHF   =         0.00000000
  -V(xc)+E(xc)   XCENC  =       563.31436667
  PAW double counting   =     15721.30055560   -15819.72254074
  entropy T*S    EENTRO =         0.00000000
  eigenvalues    EBANDS =     -1711.23679932
  atomic energy  EATOM  =     12132.05744894
  Solvation  Ediel_sol  =         0.00000000
  ---------------------------------------------------
  free energy    TOTEN  =      -124.60903528 eV

  energy without entropy =     -124.60903528  energy(sigma->0) =     -124.60903528


--------------------------------------------------------------------------------------------------------




--------------------------------------- Iteration      1(   9)  ---------------------------------------


    POTLOK:  cpu time      0.0243: real time      0.0245
    SETDIJ:  cpu time      0.1388: real time      0.1390
     EDDAV:  cpu time     14.0894: real time     14.1207
       DOS:  cpu time      0.0011: real time      0.0011
    CHARGE:  cpu time      0.4357: real time      0.4362
    MIXING:  cpu time      0.0013: real time      0.0013
    --------------------------------------------
      LOOP:  cpu time     14.6906: real time     14.7228

 eigenvalue-minimisations  : 14176
 total energy-change (2. order) : 0.6878617E+01  (-0.3285623E+01)
 number of electron     112.0000001 magnetization 
 augmentation part       24.2390172 magnetization 

 Broyden mixing:
  rms(total) = 0.61113E+00    rms(broyden)= 0.61097E+00
  rms(prec ) = 0.75813E+00
  weight for this iteration     100.00

 eigenvalues of (default mixing * dielectric matrix)
  average eigenvalue GAMMA=   0.8900
  1.8794  1.0126  0.3953  0.2727

 Free energy of the ion-electron system (eV)
  ---------------------------------------------------
  alpha Z        PSCENC =       387.22977362
  Ewald energy   TEWEN  =     -6896.74286115
  -Hartree energ DENC   =     -4464.53621056
  -exchange      EXHF   =         0.00000000
  -V(xc)+E(xc)   XCENC  =       563.16229024
  PAW double counting   =     15935.72838844   -16035.48025543
  entropy T*S    EENTRO =        -0.00000000
  eigenvalues    EBANDS =     -1739.14899257
  atomic energy  EATOM  =     12132.05744894
  Solvation  Ediel_sol  =         0.00000000
  ---------------------------------------------------
  free energy    TOTEN  =      -117.73041848 eV

  energy without entropy =     -117.73041848  energy(sigma->0) =     -117.73041848


--------------------------------------------------------------------------------------------------------




--------------------------------------- Iteration      1(  10)  ---------------------------------------


    POTLOK:  cpu time      0.0635: real time      0.0638
    SETDIJ:  cpu time      0.1374: real time      0.1379
     EDDAV:  cpu time     11.3417: real time     11.3777
       DOS:  cpu time      0.0010: real time      0.0010
    CHARGE:  cpu time      0.4321: real time      0.4334
    MIXING:  cpu time      0.0014: real time      0.0014
    --------------------------------------------
      LOOP:  cpu time     11.9771: real time     12.0152

 eigenvalue-minimisations  : 11584
 total energy-change (2. order) : 0.1359468E+00  (-0.7341820E-01)
 number of electron     112.0000001 magnetization 
 augmentation part       24.3487151 magnetization 

 Broyden mixing:
  rms(total) = 0.49526E+00    rms(broyden)= 0.49525E+00
  rms(prec ) = 0.61255E+00
  weight for this iteration     100.00

 eigenvalues of (default mixing * dielectric matrix)
  average eigenvalue GAMMA=   1.1285
  0.3869  1.6064  1.0362  1.3064  1.3064

 Free energy of the ion-electron system (eV)
  ---------------------------------------------------
  alpha Z        PSCENC =       387.22977362
  Ewald energy   TEWEN  =     -6896.74286115
  -Hartree energ DENC   =     -4457.21953004
  -exchange      EXHF   =         0.00000000
  -V(xc)+E(xc)   XCENC  =       562.86863587
  PAW double counting   =     15838.99145507   -15938.45468995
  entropy T*S    EENTRO =        -0.00000000
  eigenvalues    EBANDS =     -1746.32470407
  atomic energy  EATOM  =     12132.05744894
  Solvation  Ediel_sol  =         0.00000000
  ---------------------------------------------------
  free energy    TOTEN  =      -117.59447172 eV

  energy without entropy =     -117.59447172  energy(sigma->0) =     -117.59447172


--------------------------------------------------------------------------------------------------------




--------------------------------------- Iteration      1(  11)  ---------------------------------------


    POTLOK:  cpu time      0.0239: real time      0.0241
    SETDIJ:  cpu time      0.1370: real time      0.1372
     EDDAV:  cpu time     17.3770: real time     17.4019
       DOS:  cpu time      0.0012: real time      0.0043
    CHARGE:  cpu time      0.4648: real time      0.4680
    MIXING:  cpu time      0.0097: real time      0.0097
    --------------------------------------------
      LOOP:  cpu time     18.0137: real time     18.0452

 eigenvalue-minimisations  : 16320
 total energy-change (2. order) : 0.3512458E+00  (-0.2532179E+00)
 number of electron     112.0000001 magnetization 
 augmentation part       24.7942873 magnetization 

 Broyden mixing:
  rms(total) = 0.33708E+00    rms(broyden)= 0.33707E+00
  rms(prec ) = 0.34431E+00
  weight for this iteration     100.00

 eigenvalues of (default mixing * dielectric matrix)
  average eigenvalue GAMMA=   1.3421
  2.5931  2.5931  0.3873  0.8570  0.8111  0.8111

 Free energy of the ion-electron system (eV)
  ---------------------------------------------------
  alpha Z        PSCENC =       387.22977362
  Ewald energy   TEWEN  =     -6896.74286115
  -Hartree energ DENC   =     -4429.31687911
  -exchange      EXHF   =         0.00000000
  -V(xc)+E(xc)   XCENC  =       561.76364455
  PAW double counting   =     15808.99817985   -15907.90414047
  entropy T*S    EENTRO =         0.00000000
  eigenvalues    EBANDS =     -1773.32839214
  atomic energy  EATOM  =     12132.05744894
  Solvation  Ediel_sol  =         0.00000000
  ---------------------------------------------------
  free energy    TOTEN  =      -117.24322590 eV

  energy without entropy =     -117.24322590  energy(sigma->0) =     -117.24322590


--------------------------------------------------------------------------------------------------------




--------------------------------------- Iteration      1(  12)  ---------------------------------------


    POTLOK:  cpu time      0.0268: real time      0.0276
    SETDIJ:  cpu time      0.1387: real time      0.1388
     EDDAV:  cpu time     15.0736: real time     15.1263
       DOS:  cpu time      0.0011: real time      0.0011
    CHARGE:  cpu time      0.4347: real time      0.4354
    MIXING:  cpu time      0.0016: real time      0.0016
    --------------------------------------------
      LOOP:  cpu time     15.6764: real time     15.7307

 eigenvalue-minimisations  : 14816
 total energy-change (2. order) :-0.2891012E-01  (-0.3780229E-01)
 number of electron     112.0000001 magnetization 
 augmentation part       24.9199621 magnetization 

 Broyden mixing:
  rms(total) = 0.15476E+00    rms(broyden)= 0.15475E+00
  rms(prec ) = 0.18806E+00
  weight for this iteration     100.00

 eigenvalues of (default mixing * dielectric matrix)
  average eigenvalue GAMMA=   1.2755
  2.5730  2.5730  0.3871  0.9624  0.8686  0.8686  0.6959

 Free energy of the ion-electron system (eV)
  ---------------------------------------------------
  alpha Z        PSCENC =       387.22977362
  Ewald energy   TEWEN  =     -6896.74286115
  -Hartree energ DENC   =     -4414.71778355
  -exchange      EXHF   =         0.00000000
  -V(xc)+E(xc)   XCENC  =       561.03638263
  PAW double counting   =     15592.66884174   -15690.85331142
  entropy T*S    EENTRO =         0.00000000
  eigenvalues    EBANDS =     -1787.95062683
  atomic energy  EATOM  =     12132.05744894
  Solvation  Ediel_sol  =         0.00000000
  ---------------------------------------------------
  free energy    TOTEN  =      -117.27213602 eV

  energy without entropy =     -117.27213602  energy(sigma->0) =     -117.27213602


--------------------------------------------------------------------------------------------------------




--------------------------------------- Iteration      1(  13)  ---------------------------------------


    POTLOK:  cpu time      0.0247: real time      0.0250
    SETDIJ:  cpu time      0.1380: real time      0.1384
     EDDAV:  cpu time     17.0223: real time     17.2059
       DOS:  cpu time      0.0014: real time      0.0014
    CHARGE:  cpu time      0.4265: real time      0.4272
    MIXING:  cpu time      0.0016: real time      0.0015
    --------------------------------------------
      LOOP:  cpu time     17.6143: real time     17.7994

 eigenvalue-minimisations  : 16000
 total energy-change (2. order) : 0.6141330E-02  (-0.7221906E-02)
 number of electron     112.0000001 magnetization 
 augmentation part       24.9246741 magnetization 

 Broyden mixing:
  rms(total) = 0.14336E+00    rms(broyden)= 0.14336E+00
  rms(prec ) = 0.18717E+00
  weight for this iteration     100.00

 eigenvalues of (default mixing * dielectric matrix)
  average eigenvalue GAMMA=   1.1945
  2.2725  2.2725  1.2485  1.0477  1.0477  0.7785  0.3873  0.5018

 Free energy of the ion-electron system (eV)
  ---------------------------------------------------
  alpha Z        PSCENC =       387.22977362
  Ewald energy   TEWEN  =     -6896.74286115
  -Hartree energ DENC   =     -4417.83327904
  -exchange      EXHF   =         0.00000000
  -V(xc)+E(xc)   XCENC  =       561.22497898
  PAW double counting   =     15665.60436061   -15764.16209749
  entropy T*S    EENTRO =         0.00000000
  eigenvalues    EBANDS =     -1784.64431914
  atomic energy  EATOM  =     12132.05744894
  Solvation  Ediel_sol  =         0.00000000
  ---------------------------------------------------
  free energy    TOTEN  =      -117.26599469 eV

  energy without entropy =     -117.26599469  energy(sigma->0) =     -117.26599469


--------------------------------------------------------------------------------------------------------




--------------------------------------- Iteration      1(  14)  ---------------------------------------


    POTLOK:  cpu time      0.0249: real time      0.0252
    SETDIJ:  cpu time      0.1388: real time      0.1389
     EDDAV:  cpu time     17.6929: real time     17.7397
       DOS:  cpu time      0.0012: real time      0.0038
    CHARGE:  cpu time      0.4353: real time      0.4386
    MIXING:  cpu time      0.0019: real time      0.0019
    --------------------------------------------
      LOOP:  cpu time     18.2951: real time     18.3481

 eigenvalue-minimisations  : 16320
 total energy-change (2. order) : 0.2503470E-01  (-0.7547510E-02)
 number of electron     112.0000001 magnetization 
 augmentation part       24.8557103 magnetization 

 Broyden mixing:
  rms(total) = 0.86922E-01    rms(broyden)= 0.86921E-01
  rms(prec ) = 0.11103E+00
  weight for this iteration     100.00

 eigenvalues of (default mixing * dielectric matrix)
  average eigenvalue GAMMA=   1.1520
  2.3192  1.8450  1.8450  1.0449  1.0449  0.8646  0.6551  0.3873  0.3621

 Free energy of the ion-electron system (eV)
  ---------------------------------------------------
  alpha Z        PSCENC =       387.22977362
  Ewald energy   TEWEN  =     -6896.74286115
  -Hartree energ DENC   =     -4423.40942415
  -exchange      EXHF   =         0.00000000
  -V(xc)+E(xc)   XCENC  =       561.47096314
  PAW double counting   =     15759.55336021   -15858.45771348
  entropy T*S    EENTRO =         0.00000000
  eigenvalues    EBANDS =     -1778.94250712
  atomic energy  EATOM  =     12132.05744894
  Solvation  Ediel_sol  =         0.00000000
  ---------------------------------------------------
  free energy    TOTEN  =      -117.24095999 eV

  energy without entropy =     -117.24095999  energy(sigma->0) =     -117.24095999


--------------------------------------------------------------------------------------------------------




--------------------------------------- Iteration      1(  15)  ---------------------------------------


    POTLOK:  cpu time      0.0240: real time      0.0249
    SETDIJ:  cpu time      0.1454: real time      0.1459
     EDDAV:  cpu time     17.4671: real time     17.4990
       DOS:  cpu time      0.0011: real time      0.0011
    CHARGE:  cpu time      0.4646: real time      0.4648
    MIXING:  cpu time      0.0025: real time      0.0025
    --------------------------------------------
      LOOP:  cpu time     18.1046: real time     18.1382

 eigenvalue-minimisations  : 16352
 total energy-change (2. order) : 0.8982077E-02  (-0.4407614E-02)
 number of electron     112.0000001 magnetization 
 augmentation part       24.8007616 magnetization 

 Broyden mixing:
  rms(total) = 0.28218E-01    rms(broyden)= 0.28216E-01
  rms(prec ) = 0.34745E-01
  weight for this iteration     100.00

 eigenvalues of (default mixing * dielectric matrix)
  average eigenvalue GAMMA=   1.1687
  2.2251  1.8184  1.8184  1.8278  0.9067  0.9067  0.8228  0.3872  0.6205  0.3532

 Free energy of the ion-electron system (eV)
  ---------------------------------------------------
  alpha Z        PSCENC =       387.22977362
  Ewald energy   TEWEN  =     -6896.74286115
  -Hartree energ DENC   =     -4426.47232728
  -exchange      EXHF   =         0.00000000
  -V(xc)+E(xc)   XCENC  =       561.58682506
  PAW double counting   =     15793.75585364   -15892.77038244
  entropy T*S    EENTRO =         0.00000000
  eigenvalues    EBANDS =     -1775.87630830
  atomic energy  EATOM  =     12132.05744894
  Solvation  Ediel_sol  =         0.00000000
  ---------------------------------------------------
  free energy    TOTEN  =      -117.23197791 eV

  energy without entropy =     -117.23197791  energy(sigma->0) =     -117.23197791


--------------------------------------------------------------------------------------------------------




--------------------------------------- Iteration      1(  16)  ---------------------------------------


    POTLOK:  cpu time      0.0296: real time      0.0298
    SETDIJ:  cpu time      0.1384: real time      0.1388
     EDDAV:  cpu time     15.7695: real time     15.8062
       DOS:  cpu time      0.0012: real time      0.0012
    CHARGE:  cpu time      0.4358: real time      0.4384
    MIXING:  cpu time      0.0024: real time      0.0024
    --------------------------------------------
      LOOP:  cpu time     16.3768: real time     16.4168

 eigenvalue-minimisations  : 15712
 total energy-change (2. order) : 0.8087731E-03  (-0.5393951E-03)
 number of electron     112.0000001 magnetization 
 augmentation part       24.7834682 magnetization 

 Broyden mixing:
  rms(total) = 0.81215E-02    rms(broyden)= 0.81195E-02
  rms(prec ) = 0.99842E-02
  weight for this iteration     100.00

 eigenvalues of (default mixing * dielectric matrix)
  average eigenvalue GAMMA=   1.1938
  2.4442  2.0642  2.0642  1.3006  1.3006  0.8804  0.8804  0.8129  0.6409  0.3872
  0.3564

 Free energy of the ion-electron system (eV)
  ---------------------------------------------------
  alpha Z        PSCENC =       387.22977362
  Ewald energy   TEWEN  =     -6896.74286115
  -Hartree energ DENC   =     -4427.47163678
  -exchange      EXHF   =         0.00000000
  -V(xc)+E(xc)   XCENC  =       561.62276347
  PAW double counting   =     15791.23524111   -15890.24889964
  entropy T*S    EENTRO =         0.00000000
  eigenvalues    EBANDS =     -1774.91299870
  atomic energy  EATOM  =     12132.05744894
  Solvation  Ediel_sol  =         0.00000000
  ---------------------------------------------------
  free energy    TOTEN  =      -117.23116914 eV

  energy without entropy =     -117.23116914  energy(sigma->0) =     -117.23116914


--------------------------------------------------------------------------------------------------------




--------------------------------------- Iteration      1(  17)  ---------------------------------------


    POTLOK:  cpu time      0.0232: real time      0.0235
    SETDIJ:  cpu time      0.1436: real time      0.1446
     EDDAV:  cpu time     18.1407: real time     18.1923
       DOS:  cpu time      0.0013: real time      0.0013
    CHARGE:  cpu time      0.4263: real time      0.4274
    MIXING:  cpu time      0.0015: real time      0.0015
    --------------------------------------------
      LOOP:  cpu time     18.7365: real time     18.7905

 eigenvalue-minimisations  : 16800
 total energy-change (2. order) : 0.5735562E-04  (-0.1577360E-03)
 number of electron     112.0000001 magnetization 
 augmentation part       24.7743113 magnetization 

 Broyden mixing:
  rms(total) = 0.48507E-02    rms(broyden)= 0.48496E-02
  rms(prec ) = 0.62076E-02
  weight for this iteration     100.00

 eigenvalues of (default mixing * dielectric matrix)
  average eigenvalue GAMMA=   1.2153
  1.9970  1.9970  2.3777  2.1120  1.3136  0.9295  0.9295  0.8564  0.3872  0.6753
  0.6512  0.3571

 Free energy of the ion-electron system (eV)
  ---------------------------------------------------
  alpha Z        PSCENC =       387.22977362
  Ewald energy   TEWEN  =     -6896.74286115
  -Hartree energ DENC   =     -4428.12602677
  -exchange      EXHF   =         0.00000000
  -V(xc)+E(xc)   XCENC  =       561.64761810
  PAW double counting   =     15800.29295788   -15899.32103198
  entropy T*S    EENTRO =         0.00000000
  eigenvalues    EBANDS =     -1774.26899043
  atomic energy  EATOM  =     12132.05744894
  Solvation  Ediel_sol  =         0.00000000
  ---------------------------------------------------
  free energy    TOTEN  =      -117.23111179 eV

  energy without entropy =     -117.23111179  energy(sigma->0) =     -117.23111179


--------------------------------------------------------------------------------------------------------




--------------------------------------- Iteration      1(  18)  ---------------------------------------


    POTLOK:  cpu time      0.0241: real time      0.0244
    SETDIJ:  cpu time      0.1382: real time      0.1384
     EDDAV:  cpu time     15.4511: real time     15.4962
       DOS:  cpu time      0.0012: real time      0.0040
    CHARGE:  cpu time      0.4426: real time      0.4462
    MIXING:  cpu time      0.0020: real time      0.0020
    --------------------------------------------
      LOOP:  cpu time     16.0592: real time     16.1112

 eigenvalue-minimisations  : 15008
 total energy-change (2. order) : 0.1703335E-04  (-0.2670488E-04)
 number of electron     112.0000001 magnetization 
 augmentation part       24.7774535 magnetization 

 Broyden mixing:
  rms(total) = 0.20991E-02    rms(broyden)= 0.20989E-02
  rms(prec ) = 0.22787E-02
  weight for this iteration     100.00

 eigenvalues of (default mixing * dielectric matrix)
  average eigenvalue GAMMA=   1.1901
  2.4321  2.4272  1.9891  1.9891  1.2824  0.9411  0.9411  0.8896  0.6756  0.6756
  0.3872  0.3566  0.4847

 Free energy of the ion-electron system (eV)
  ---------------------------------------------------
  alpha Z        PSCENC =       387.22977362
  Ewald energy   TEWEN  =     -6896.74286115
  -Hartree energ DENC   =     -4428.11206129
  -exchange      EXHF   =         0.00000000
  -V(xc)+E(xc)   XCENC  =       561.64966081
  PAW double counting   =     15798.15026334   -15897.17332455
  entropy T*S    EENTRO =         0.00000000
  eigenvalues    EBANDS =     -1774.28999448
  atomic energy  EATOM  =     12132.05744894
  Solvation  Ediel_sol  =         0.00000000
  ---------------------------------------------------
  free energy    TOTEN  =      -117.23109475 eV

  energy without entropy =     -117.23109475  energy(sigma->0) =     -117.23109475


--------------------------------------------------------------------------------------------------------




--------------------------------------- Iteration      1(  19)  ---------------------------------------


    POTLOK:  cpu time      0.0256: real time      0.0260
    SETDIJ:  cpu time      0.1441: real time      0.1448
     EDDAV:  cpu time     19.3106: real time     19.3681
       DOS:  cpu time      0.0011: real time      0.0011
    CHARGE:  cpu time      0.4348: real time      0.4352
    MIXING:  cpu time      0.0015: real time      0.0015
    --------------------------------------------
      LOOP:  cpu time     19.9178: real time     19.9767

 eigenvalue-minimisations  : 17824
 total energy-change (2. order) :-0.3627880E-05  (-0.4730205E-05)
 number of electron     112.0000001 magnetization 
 augmentation part       24.7787656 magnetization 

 Broyden mixing:
  rms(total) = 0.23988E-02    rms(broyden)= 0.23987E-02
  rms(prec ) = 0.27797E-02
  weight for this iteration     100.00

 eigenvalues of (default mixing * dielectric matrix)
  average eigenvalue GAMMA=   1.1654
  2.6209  2.2498  1.9902  1.9902  1.4679  0.9377  0.9377  0.8916  0.7599  0.7599
  0.6020  0.3872  0.3577  0.3630

 Free energy of the ion-electron system (eV)
  ---------------------------------------------------
  alpha Z        PSCENC =       387.22977362
  Ewald energy   TEWEN  =     -6896.74286115
  -Hartree energ DENC   =     -4428.07519012
  -exchange      EXHF   =         0.00000000
  -V(xc)+E(xc)   XCENC  =       561.64878803
  PAW double counting   =     15797.31473291   -15896.33724590
  entropy T*S    EENTRO =         0.00000000
  eigenvalues    EBANDS =     -1774.32654471
  atomic energy  EATOM  =     12132.05744894
  Solvation  Ediel_sol  =         0.00000000
  ---------------------------------------------------
  free energy    TOTEN  =      -117.23109838 eV

  energy without entropy =     -117.23109838  energy(sigma->0) =     -117.23109838


--------------------------------------------------------------------------------------------------------




--------------------------------------- Iteration      1(  20)  ---------------------------------------


    POTLOK:  cpu time      0.0241: real time      0.0245
    SETDIJ:  cpu time      0.1379: real time      0.1383
     EDDAV:  cpu time     15.5996: real time     15.6283
       DOS:  cpu time      0.0011: real time      0.0011
    CHARGE:  cpu time      0.4397: real time      0.4399
    MIXING:  cpu time      0.0024: real time      0.0024
    --------------------------------------------
      LOOP:  cpu time     16.2048: real time     16.2345

 eigenvalue-minimisations  : 14912
 total energy-change (2. order) : 0.1380924E-05  (-0.5585281E-06)
 number of electron     112.0000001 magnetization 
 augmentation part       24.7784940 magnetization 

 Broyden mixing:
  rms(total) = 0.15160E-02    rms(broyden)= 0.15160E-02
  rms(prec ) = 0.18159E-02
  weight for this iteration     100.00

 eigenvalues of (default mixing * dielectric matrix)
  average eigenvalue GAMMA=   1.1601
  2.5822  2.3325  1.9728  1.9728  1.6651  0.9432  0.9432  0.9197  0.8101  0.8101
  0.7128  0.6318  0.3872  0.3566  0.3611

 Free energy of the ion-electron system (eV)
  ---------------------------------------------------
  alpha Z        PSCENC =       387.22977362
  Ewald energy   TEWEN  =     -6896.74286115
  -Hartree energ DENC   =     -4428.07953906
  -exchange      EXHF   =         0.00000000
  -V(xc)+E(xc)   XCENC  =       561.64853861
  PAW double counting   =     15797.06007643   -15896.08332562
  entropy T*S    EENTRO =         0.00000000
  eigenvalues    EBANDS =     -1774.32120876
  atomic energy  EATOM  =     12132.05744894
  Solvation  Ediel_sol  =         0.00000000
  ---------------------------------------------------
  free energy    TOTEN  =      -117.23109700 eV

  energy without entropy =     -117.23109700  energy(sigma->0) =     -117.23109700


--------------------------------------------------------------------------------------------------------




--------------------------------------- Iteration      1(  21)  ---------------------------------------


    POTLOK:  cpu time      0.0245: real time      0.0247
    SETDIJ:  cpu time      0.1457: real time      0.1463
     EDDAV:  cpu time     14.0292: real time     14.0514
       DOS:  cpu time      0.0012: real time      0.0041
    CHARGE:  cpu time      0.4446: real time      0.4467
    MIXING:  cpu time      0.0023: real time      0.0023
    --------------------------------------------
      LOOP:  cpu time     14.6475: real time     14.6756

 eigenvalue-minimisations  : 14176
 total energy-change (2. order) : 0.1937618E-05  (-0.1748694E-05)
 number of electron     112.0000001 magnetization 
 augmentation part       24.7775360 magnetization 

 Broyden mixing:
  rms(total) = 0.14938E-03    rms(broyden)= 0.14899E-03
  rms(prec ) = 0.17874E-03
  weight for this iteration     100.00

 eigenvalues of (default mixing * dielectric matrix)
  average eigenvalue GAMMA=   1.1857
  2.6176  2.6176  1.9849  1.9849  1.7632  1.2433  0.9491  0.9491  0.8170  0.8170
  0.8300  0.6447  0.6447  0.3872  0.3567  0.3641

 Free energy of the ion-electron system (eV)
  ---------------------------------------------------
  alpha Z        PSCENC =       387.22977362
  Ewald energy   TEWEN  =     -6896.74286115
  -Hartree energ DENC   =     -4428.10830498
  -exchange      EXHF   =         0.00000000
  -V(xc)+E(xc)   XCENC  =       561.64893259
  PAW double counting   =     15796.87342670   -15895.89706730
  entropy T*S    EENTRO =         0.00000000
  eigenvalues    EBANDS =     -1774.29244349
  atomic energy  EATOM  =     12132.05744894
  Solvation  Ediel_sol  =         0.00000000
  ---------------------------------------------------
  free energy    TOTEN  =      -117.23109506 eV

  energy without entropy =     -117.23109506  energy(sigma->0) =     -117.23109506


--------------------------------------------------------------------------------------------------------




--------------------------------------- Iteration      1(  22)  ---------------------------------------


    POTLOK:  cpu time      0.0245: real time      0.0251
    SETDIJ:  cpu time      0.1383: real time      0.1384
     EDDAV:  cpu time     10.2526: real time     10.2820
       DOS:  cpu time      0.0011: real time      0.0011
    CHARGE:  cpu time      0.4504: real time      0.4510
    MIXING:  cpu time      0.0028: real time      0.0028
    --------------------------------------------
      LOOP:  cpu time     10.8697: real time     10.9003

 eigenvalue-minimisations  : 11008
 total energy-change (2. order) :-0.4591129E-07  (-0.3851546E-07)
 number of electron     112.0000001 magnetization 
 augmentation part       24.7775570 magnetization 

 Broyden mixing:
  rms(total) = 0.15378E-03    rms(broyden)= 0.15374E-03
  rms(prec ) = 0.17738E-03
  weight for this iteration     100.00

 eigenvalues of (default mixing * dielectric matrix)
  average eigenvalue GAMMA=   1.1899
  2.6599  2.6599  1.9838  1.9838  1.9870  1.4097  0.9437  0.9437  0.9031  0.8152
  0.8152  0.6941  0.6941  0.6267  0.3872  0.3567  0.3646

 Free energy of the ion-electron system (eV)
  ---------------------------------------------------
  alpha Z        PSCENC =       387.22977362
  Ewald energy   TEWEN  =     -6896.74286115
  -Hartree energ DENC   =     -4428.10371825
  -exchange      EXHF   =         0.00000000
  -V(xc)+E(xc)   XCENC  =       561.64860803
  PAW double counting   =     15796.73473883   -15895.75878434
  entropy T*S    EENTRO =         0.00000000
  eigenvalues    EBANDS =     -1774.29630079
  atomic energy  EATOM  =     12132.05744894
  Solvation  Ediel_sol  =         0.00000000
  ---------------------------------------------------
  free energy    TOTEN  =      -117.23109511 eV

  energy without entropy =     -117.23109511  energy(sigma->0) =     -117.23109511


--------------------------------------------------------------------------------------------------------




--------------------------------------- Iteration      1(  23)  ---------------------------------------


    POTLOK:  cpu time      0.0231: real time      0.0233
    SETDIJ:  cpu time      0.1449: real time      0.1454
     EDDAV:  cpu time     17.7897: real time     17.8311
       DOS:  cpu time      0.0011: real time      0.0011
    CHARGE:  cpu time      0.4401: real time      0.4404
    MIXING:  cpu time      0.0016: real time      0.0016
    --------------------------------------------
      LOOP:  cpu time     18.4005: real time     18.4429

 eigenvalue-minimisations  : 16480
 total energy-change (2. order) :-0.6108894E-07  (-0.1684852E-07)
 number of electron     112.0000001 magnetization 
 augmentation part       24.7776540 magnetization 

 Broyden mixing:
  rms(total) = 0.44306E-04    rms(broyden)= 0.44262E-04
  rms(prec ) = 0.52829E-04
  weight for this iteration     100.00

 eigenvalues of (default mixing * dielectric matrix)
  average eigenvalue GAMMA=   1.1659
  2.6974  2.6164  1.9803  1.9803  2.1281  1.4630  0.9454  0.9454  0.9415  0.8380
  0.8380  0.7418  0.3872  0.6294  0.5971  0.5350  0.3567  0.3644

 Free energy of the ion-electron system (eV)
  ---------------------------------------------------
  alpha Z        PSCENC =       387.22977362
  Ewald energy   TEWEN  =     -6896.74286115
  -Hartree energ DENC   =     -4428.10067413
  -exchange      EXHF   =         0.00000000
  -V(xc)+E(xc)   XCENC  =       561.64852169
  PAW double counting   =     15796.75336898   -15895.77793862
  entropy T*S    EENTRO =         0.00000000
  eigenvalues    EBANDS =     -1774.29873450
  atomic energy  EATOM  =     12132.05744894
  Solvation  Ediel_sol  =         0.00000000
  ---------------------------------------------------
  free energy    TOTEN  =      -117.23109517 eV

  energy without entropy =     -117.23109517  energy(sigma->0) =     -117.23109517


--------------------------------------------------------------------------------------------------------




--------------------------------------- Iteration      1(  24)  ---------------------------------------


    POTLOK:  cpu time      0.0248: real time      0.0251
    SETDIJ:  cpu time      0.1379: real time      0.1389
     EDDAV:  cpu time     13.8472: real time     13.8702
       DOS:  cpu time      0.0012: real time      0.0012
    CHARGE:  cpu time      0.4940: real time      0.4963
    MIXING:  cpu time      0.0056: real time      0.0056
    --------------------------------------------
      LOOP:  cpu time     14.5107: real time     14.5372

 eigenvalue-minimisations  : 12384
 total energy-change (2. order) :-0.1094304E-07  (-0.1297947E-08)
 number of electron     112.0000001 magnetization 
 augmentation part       24.7776452 magnetization 

 Broyden mixing:
  rms(total) = 0.31595E-04    rms(broyden)= 0.31536E-04
  rms(prec ) = 0.36136E-04
  weight for this iteration     100.00

 eigenvalues of (default mixing * dielectric matrix)
  average eigenvalue GAMMA=   1.1772
  2.8348  2.5227  1.9818  1.9818  2.2336  1.7382  0.9479  0.9479  1.0145  1.0145
  0.7781  0.7781  0.7871  0.7064  0.6333  0.3872  0.3660  0.3561  0.3560

 Free energy of the ion-electron system (eV)
  ---------------------------------------------------
  alpha Z        PSCENC =       387.22977362
  Ewald energy   TEWEN  =     -6896.74286115
  -Hartree energ DENC   =     -4428.10205592
  -exchange      EXHF   =         0.00000000
  -V(xc)+E(xc)   XCENC  =       561.64858364
  PAW double counting   =     15796.76233108   -15895.78706998
  entropy T*S    EENTRO =         0.00000000
  eigenvalues    EBANDS =     -1774.29724541
  atomic energy  EATOM  =     12132.05744894
  Solvation  Ediel_sol  =         0.00000000
  ---------------------------------------------------
  free energy    TOTEN  =      -117.23109518 eV

  energy without entropy =     -117.23109518  energy(sigma->0) =     -117.23109518


--------------------------------------------------------------------------------------------------------




--------------------------------------- Iteration      1(  25)  ---------------------------------------


    POTLOK:  cpu time      0.1600: real time      0.1615
    SETDIJ:  cpu time      0.1595: real time      0.1600
     EDDAV:  cpu time      7.6894: real time      7.7014
       DOS:  cpu time      0.0011: real time      0.0011
    CHARGE:  cpu time      0.4263: real time      0.4268
    MIXING:  cpu time      0.0019: real time      0.0019
    --------------------------------------------
      LOOP:  cpu time      8.4382: real time      8.4526

 eigenvalue-minimisations  :  7104
 total energy-change (2. order) :-0.1412445E-07  (-0.1022918E-08)
 number of electron     112.0000001 magnetization 
 augmentation part       24.7776193 magnetization 

 Broyden mixing:
  rms(total) = 0.22418E-04    rms(broyden)= 0.22335E-04
  rms(prec ) = 0.25443E-04
  weight for this iteration     100.00

 eigenvalues of (default mixing * dielectric matrix)
  average eigenvalue GAMMA=   1.1725
  2.9552  2.3852  2.3852  1.9800  1.9800  1.9256  0.9469  0.9469  1.0566  1.0566
  0.7885  0.7885  0.7560  0.6979  0.6979  0.6224  0.3872  0.3568  0.3641  0.3720

 Free energy of the ion-electron system (eV)
  ---------------------------------------------------
  alpha Z        PSCENC =       387.22977362
  Ewald energy   TEWEN  =     -6896.74286115
  -Hartree energ DENC   =     -4428.10450215
  -exchange      EXHF   =         0.00000000
  -V(xc)+E(xc)   XCENC  =       561.64868446
  PAW double counting   =     15796.75739906   -15895.78225453
  entropy T*S    EENTRO =         0.00000000
  eigenvalues    EBANDS =     -1774.29478345
  atomic energy  EATOM  =     12132.05744894
  Solvation  Ediel_sol  =         0.00000000
  ---------------------------------------------------
  free energy    TOTEN  =      -117.23109519 eV

  energy without entropy =     -117.23109519  energy(sigma->0) =     -117.23109519


--------------------------------------------------------------------------------------------------------




--------------------------------------- Iteration      1(  26)  ---------------------------------------


    POTLOK:  cpu time      0.0232: real time      0.0234
    SETDIJ:  cpu time      0.1379: real time      0.1379
     EDDAV:  cpu time      6.5188: real time      6.5267
       DOS:  cpu time      0.0011: real time      0.0011
    --------------------------------------------
      LOOP:  cpu time      6.6813: real time      6.6894

 eigenvalue-minimisations  :  5664
 total energy-change (2. order) :-0.8752977E-08  (-0.1911842E-09)
 number of electron     112.0000001 magnetization 
 augmentation part       24.7776193 magnetization 

 Free energy of the ion-electron system (eV)
  ---------------------------------------------------
  alpha Z        PSCENC =       387.22977362
  Ewald energy   TEWEN  =     -6896.74286115
  -Hartree energ DENC   =     -4428.10453692
  -exchange      EXHF   =         0.00000000
  -V(xc)+E(xc)   XCENC  =       561.64868733
  PAW double counting   =     15796.75991296   -15895.78476879
  entropy T*S    EENTRO =         0.00000000
  eigenvalues    EBANDS =     -1774.29475119
  atomic energy  EATOM  =     12132.05744894
  Solvation  Ediel_sol  =         0.00000000
  ---------------------------------------------------
  free energy    TOTEN  =      -117.23109520 eV

  energy without entropy =     -117.23109520  energy(sigma->0) =     -117.23109520


--------------------------------------------------------------------------------------------------------




 average (electrostatic) potential at core
  the test charge radii are     0.7215  0.9956
  (the norm of the test charge is              1.0000)
       1 -72.8763       2 -72.9281       3 -72.8533       4 -72.8533       5 -72.9281
       6 -72.8763       7 -72.9281       8 -72.8533       9 -72.8533      10 -72.9281
      11 -79.3768      12 -79.3768      13 -79.3768      14 -79.3768
 
 
 
 E-fermi :   1.8766     XC(G=0):  -9.8639     alpha+bet : -9.9919

 val. band max:        1.1537586653   @ k =  -0.4651   0.5000   0.0000
 cond. band min:       2.8083969864   @ k =   0.0000   0.0000   0.0000
 fundamental gap:      1.6546383211
 Fermi energy:         1.8766227212

 k-point     1 :       0.0000    0.0000    0.0000
  band No.  band energies     occupation 
      1     -63.0033      2.00000
      2     -63.0014      2.00000
      3     -62.9913      2.00000
      4     -62.9894      2.00000
      5     -36.9925      2.00000
      6     -36.9892      2.00000
      7     -36.9855      2.00000
      8     -36.9790      2.00000
      9     -36.9473      2.00000
     10     -36.8966      2.00000
     11     -36.8600      2.00000
     12     -36.8370      2.00000
     13     -36.8346      2.00000
     14     -36.8117      2.00000
     15     -36.7990      2.00000
     16     -36.7966      2.00000
     17     -16.6486      2.00000
     18     -16.5178      2.00000
     19     -15.5300      2.00000
     20     -15.4184      2.00000
     21     -15.3284      2.00000
     22     -15.2507      2.00000
     23     -14.8747      2.00000
     24     -14.8554      2.00000
     25     -14.7235      2.00000
     26     -14.6759      2.00000
     27      -3.4309      2.00000
     28      -3.4060      2.00000
     29      -3.3876      2.00000
     30      -3.2447      2.00000
     31      -3.0840      2.00000
     32      -2.5024      2.00000
     33      -1.8744      2.00000
     34      -1.8055      2.00000
     35      -1.7104      2.00000
     36      -1.5547      2.00000
     37      -1.2129      2.00000
     38      -1.1877      2.00000
     39      -1.0471      2.00000
     40      -0.9422      2.00000
     41      -0.8754      2.00000
     42      -0.8519      2.00000
     43      -0.8388      2.00000
     44      -0.8273      2.00000
     45      -0.7004      2.00000
     46      -0.6702      2.00000
     47      -0.6472      2.00000
     48      -0.4973      2.00000
     49      -0.3494      2.00000
     50       0.0041      2.00000
     51       0.0319      2.00000
     52       0.0512      2.00000
     53       0.1050      2.00000
     54       0.2960      2.00000
     55       0.4014      2.00000
     56       0.4282      2.00000
     57       2.8084      0.00000
     58       2.9796      0.00000
     59       4.2288      0.00000
     60       4.2444      0.00000
     61       4.3134      0.00000
     62       4.4804      0.00000
     63       4.6622      0.00000
     64       4.8467      0.00000

 k-point     2 :       0.0233    0.0000    0.0000
  band No.  band energies     occupation 
      1     -63.0033      2.00000
      2     -63.0014      2.00000
      3     -62.9913      2.00000
      4     -62.9894      2.00000
      5     -36.9925      2.00000
      6     -36.9892      2.00000
      7     -36.9854      2.00000
      8     -36.9790      2.00000
      9     -36.9473      2.00000
     10     -36.8966      2.00000
     11     -36.8605      2.00000
     12     -36.8369      2.00000
     13     -36.8352      2.00000
     14     -36.8115      2.00000
     15     -36.7993      2.00000
     16     -36.7969      2.00000
     17     -16.6452      2.00000
     18     -16.5143      2.00000
     19     -15.5283      2.00000
     20     -15.4166      2.00000
     21     -15.3282      2.00000
     22     -15.2503      2.00000
     23     -14.8744      2.00000
     24     -14.8550      2.00000
     25     -14.7240      2.00000
     26     -14.6761      2.00000
     27      -3.4290      2.00000
     28      -3.4151      2.00000
     29      -3.3992      2.00000
     30      -3.2430      2.00000
     31      -3.0791      2.00000
     32      -2.5009      2.00000
     33      -1.8706      2.00000
     34      -1.8045      2.00000
     35      -1.7095      2.00000
     36      -1.5552      2.00000
     37      -1.2312      2.00000
     38      -1.2043      2.00000
     39      -1.0446      2.00000
     40      -0.9395      2.00000
     41      -0.8690      2.00000
     42      -0.8584      2.00000
     43      -0.8461      2.00000
     44      -0.8207      2.00000
     45      -0.6965      2.00000
     46      -0.6734      2.00000
     47      -0.6519      2.00000
     48      -0.4880      2.00000
     49      -0.3504      2.00000
     50      -0.0021      2.00000
     51       0.0264      2.00000
     52       0.0602      2.00000
     53       0.1096      2.00000
     54       0.2985      2.00000
     55       0.4070      2.00000
     56       0.4282      2.00000
     57       2.8124      0.00000
     58       2.9840      0.00000
     59       4.2316      0.00000
     60       4.2439      0.00000
     61       4.3108      0.00000
     62       4.4853      0.00000
     63       4.6603      0.00000
     64       4.8478      0.00000

 k-point     3 :       0.0465    0.0000    0.0000
  band No.  band energies     occupation 
      1     -63.0032      2.00000
      2     -63.0013      2.00000
      3     -62.9913      2.00000
      4     -62.9894      2.00000
      5     -36.9924      2.00000
      6     -36.9891      2.00000
      7     -36.9854      2.00000
      8     -36.9789      2.00000
      9     -36.9472      2.00000
     10     -36.8966      2.00000
     11     -36.8619      2.00000
     12     -36.8371      2.00000
     13     -36.8367      2.00000
     14     -36.8108      2.00000
     15     -36.8001      2.00000
     16     -36.7976      2.00000
     17     -16.6348      2.00000
     18     -16.5036      2.00000
     19     -15.5235      2.00000
     20     -15.4115      2.00000
     21     -15.3275      2.00000
     22     -15.2493      2.00000
     23     -14.8732      2.00000
     24     -14.8537      2.00000
     25     -14.7252      2.00000
     26     -14.6767      2.00000
     27      -3.4417      2.00000
     28      -3.4311      2.00000
     29      -3.4232      2.00000
     30      -3.2379      2.00000
     31      -3.0666      2.00000
     32      -2.4961      2.00000
     33      -1.8602      2.00000
     34      -1.8018      2.00000
     35      -1.7069      2.00000
     36      -1.5568      2.00000
     37      -1.2819      2.00000
     38      -1.2501      2.00000
     39      -1.0374      2.00000
     40      -0.9333      2.00000
     41      -0.8764      2.00000
     42      -0.8602      2.00000
     43      -0.8505      2.00000
     44      -0.8089      2.00000
     45      -0.6864      2.00000
     46      -0.6823      2.00000
     47      -0.6653      2.00000
     48      -0.4631      2.00000
     49      -0.3531      2.00000
     50      -0.0196      2.00000
     51       0.0105      2.00000
     52       0.0856      2.00000
     53       0.1226      2.00000
     54       0.3062      2.00000
     55       0.4230      2.00000
     56       0.4282      2.00000
     57       2.8243      0.00000
     58       2.9970      0.00000
     59       4.2398      0.00000
     60       4.2424      0.00000
     61       4.3042      0.00000
     62       4.4987      0.00000
     63       4.6543      0.00000
     64       4.8508      0.00000

 k-point     4 :       0.0698    0.0000    0.0000
  band No.  band energies     occupation 
      1     -63.0030      2.00000
      2     -63.0012      2.00000
      3     -62.9913      2.00000
      4     -62.9894      2.00000
      5     -36.9922      2.00000
      6     -36.9890      2.00000
      7     -36.9852      2.00000
      8     -36.9789      2.00000
      9     -36.9471      2.00000
     10     -36.8967      2.00000
     11     -36.8642      2.00000
     12     -36.8399      2.00000
     13     -36.8364      2.00000
     14     -36.8099      2.00000
     15     -36.8015      2.00000
     16     -36.7987      2.00000
     17     -16.6177      2.00000
     18     -16.4859      2.00000
     19     -15.5156      2.00000
     20     -15.4031      2.00000
     21     -15.3264      2.00000
     22     -15.2475      2.00000
     23     -14.8712      2.00000
     24     -14.8518      2.00000
     25     -14.7273      2.00000
     26     -14.6778      2.00000
     27      -3.4830      2.00000
     28      -3.4776      2.00000
     29      -3.4138      2.00000
     30      -3.2296      2.00000
     31      -3.0508      2.00000
     32      -2.4879      2.00000
     33      -1.8465      2.00000
     34      -1.7973      2.00000
     35      -1.7037      2.00000
     36      -1.5592      2.00000
     37      -1.3570      2.00000
     38      -1.3178      2.00000
     39      -1.0272      2.00000
     40      -0.9265      2.00000
     41      -0.9015      2.00000
     42      -0.8777      2.00000
     43      -0.8234      2.00000
     44      -0.7966      2.00000
     45      -0.6938      2.00000
     46      -0.6861      2.00000
     47      -0.6734      2.00000
     48      -0.4296      2.00000
     49      -0.3576      2.00000
     50      -0.0464      2.00000
     51      -0.0153      2.00000
     52       0.1229      2.00000
     53       0.1421      2.00000
     54       0.3198      2.00000
     55       0.4274      2.00000
     56       0.4469      2.00000
     57       2.8436      0.00000
     58       3.0183      0.00000
     59       4.2399      0.00000
     60       4.2536      0.00000
     61       4.2952      0.00000
     62       4.5180      0.00000
     63       4.6431      0.00000
     64       4.8554      0.00000

 k-point     5 :       0.0930    0.0000    0.0000
  band No.  band energies     occupation 
      1     -63.0028      2.00000
      2     -63.0010      2.00000
      3     -62.9913      2.00000
      4     -62.9895      2.00000
      5     -36.9920      2.00000
      6     -36.9888      2.00000
      7     -36.9851      2.00000
      8     -36.9787      2.00000
      9     -36.9469      2.00000
     10     -36.8968      2.00000
     11     -36.8671      2.00000
     12     -36.8435      2.00000
     13     -36.8361      2.00000
     14     -36.8089      2.00000
     15     -36.8034      2.00000
     16     -36.8003      2.00000
     17     -16.5939      2.00000
     18     -16.4615      2.00000
     19     -15.5051      2.00000
     20     -15.3917      2.00000
     21     -15.3248      2.00000
     22     -15.2451      2.00000
     23     -14.8686      2.00000
     24     -14.8490      2.00000
     25     -14.7302      2.00000
     26     -14.6793      2.00000
     27      -3.5353      2.00000
     28      -3.5330      2.00000
     29      -3.4007      2.00000
     30      -3.2180      2.00000
     31      -3.0348      2.00000
     32      -2.4763      2.00000
     33      -1.8336      2.00000
     34      -1.7911      2.00000
     35      -1.7009      2.00000
     36      -1.5621      2.00000
     37      -1.4487      2.00000
     38      -1.4009      2.00000
     39      -1.0200      2.00000
     40      -0.9244      2.00000
     41      -0.9204      2.00000
     42      -0.8967      2.00000
     43      -0.7978      2.00000
     44      -0.7863      2.00000
     45      -0.7123      2.00000
     46      -0.6983      2.00000
     47      -0.6604      2.00000
     48      -0.3946      2.00000
     49      -0.3632      2.00000
     50      -0.0791      2.00000
     51      -0.0505      2.00000
     52       0.1659      2.00000
     53       0.1660      2.00000
     54       0.3403      2.00000
     55       0.4248      2.00000
     56       0.4757      2.00000
     57       2.8695      0.00000
     58       3.0471      0.00000
     59       4.2360      0.00000
     60       4.2729      0.00000
     61       4.2855      0.00000
     62       4.5397      0.00000
     63       4.6249      0.00000
     64       4.8602      0.00000

 k-point     6 :       0.1163    0.0000    0.0000
  band No.  band energies     occupation 
      1     -63.0026      2.00000
      2     -63.0007      2.00000
      3     -62.9914      2.00000
      4     -62.9895      2.00000
      5     -36.9916      2.00000
      6     -36.9885      2.00000
      7     -36.9848      2.00000
      8     -36.9786      2.00000
      9     -36.9467      2.00000
     10     -36.8970      2.00000
     11     -36.8707      2.00000
     12     -36.8476      2.00000
     13     -36.8359      2.00000
     14     -36.8081      2.00000
     15     -36.8058      2.00000
     16     -36.8022      2.00000
     17     -16.5639      2.00000
     18     -16.4305      2.00000
     19     -15.4924      2.00000
     20     -15.3778      2.00000
     21     -15.3227      2.00000
     22     -15.2421      2.00000
     23     -14.8653      2.00000
     24     -14.8456      2.00000
     25     -14.7340      2.00000
     26     -14.6813      2.00000
     27      -3.5950      2.00000
     28      -3.5931      2.00000
     29      -3.3844      2.00000
     30      -3.2035      2.00000
     31      -3.0202      2.00000
     32      -2.4611      2.00000
     33      -1.8258      2.00000
     34      -1.7834      2.00000
     35      -1.6996      2.00000
     36      -1.5655      2.00000
     37      -1.5513      2.00000
     38      -1.4951      2.00000
     39      -1.0290      2.00000
     40      -0.9290      2.00000
     41      -0.9157      2.00000
     42      -0.9157      2.00000
     43      -0.7931      2.00000
     44      -0.7800      2.00000
     45      -0.7420      2.00000
     46      -0.6781      2.00000
     47      -0.6494      2.00000
     48      -0.3691      2.00000
     49      -0.3654      2.00000
     50      -0.1124      2.00000
     51      -0.0941      2.00000
     52       0.1912      2.00000
     53       0.2083      2.00000
     54       0.3692      2.00000
     55       0.4191      2.00000
     56       0.5063      2.00000
     57       2.9008      0.00000
     58       3.0821      0.00000
     59       4.2305      0.00000
     60       4.2756      0.00000
     61       4.2973      0.00000
     62       4.5595      0.00000
     63       4.5962      0.00000
     64       4.8583      0.00000

 k-point     7 :       0.1395    0.0000    0.0000
  band No.  band energies     occupation 
      1     -63.0023      2.00000
      2     -63.0004      2.00000
      3     -62.9914      2.00000
      4     -62.9895      2.00000
      5     -36.9913      2.00000
      6     -36.9882      2.00000
      7     -36.9846      2.00000
      8     -36.9784      2.00000
      9     -36.9465      2.00000
     10     -36.8972      2.00000
     11     -36.8748      2.00000
     12     -36.8522      2.00000
     13     -36.8358      2.00000
     14     -36.8085      2.00000
     15     -36.8074      2.00000
     16     -36.8044      2.00000
     17     -16.5278      2.00000
     18     -16.3933      2.00000
     19     -15.4783      2.00000
     20     -15.3618      2.00000
     21     -15.3198      2.00000
     22     -15.2386      2.00000
     23     -14.8615      2.00000
     24     -14.8415      2.00000
     25     -14.7387      2.00000
     26     -14.6838      2.00000
     27      -3.6581      2.00000
     28      -3.6542      2.00000
     29      -3.3650      2.00000
     30      -3.1863      2.00000
     31      -3.0078      2.00000
     32      -2.4421      2.00000
     33      -1.8260      2.00000
     34      -1.7751      2.00000
     35      -1.7005      2.00000
     36      -1.6602      2.00000
     37      -1.5973      2.00000
     38      -1.5694      2.00000
     39      -1.0564      2.00000
     40      -0.9336      2.00000
     41      -0.9129      2.00000
     42      -0.9117      2.00000
     43      -0.8091      2.00000
     44      -0.7794      2.00000
     45      -0.7730      2.00000
     46      -0.6412      2.00000
     47      -0.6363      2.00000
     48      -0.3731      2.00000
     49      -0.3507      2.00000
     50      -0.1448      2.00000
     51      -0.1370      2.00000
     52       0.2156      2.00000
     53       0.2452      2.00000
     54       0.4072      2.00000
     55       0.4092      2.00000
     56       0.5357      2.00000
     57       2.9359      0.00000
     58       3.1221      0.00000
     59       4.2231      0.00000
     60       4.2653      0.00000
     61       4.3257      0.00000
     62       4.5531      0.00000
     63       4.5710      0.00000
     64       4.8036      0.00000

 k-point     8 :       0.1628    0.0000    0.0000
  band No.  band energies     occupation 
      1     -63.0020      2.00000
      2     -63.0001      2.00000
      3     -62.9915      2.00000
      4     -62.9896      2.00000
      5     -36.9908      2.00000
      6     -36.9879      2.00000
      7     -36.9843      2.00000
      8     -36.9782      2.00000
      9     -36.9463      2.00000
     10     -36.8976      2.00000
     11     -36.8792      2.00000
     12     -36.8572      2.00000
     13     -36.8359      2.00000
     14     -36.8116      2.00000
     15     -36.8070      2.00000
     16     -36.8067      2.00000
     17     -16.4862      2.00000
     18     -16.3503      2.00000
     19     -15.4636      2.00000
     20     -15.3444      2.00000
     21     -15.3159      2.00000
     22     -15.2345      2.00000
     23     -14.8571      2.00000
     24     -14.8369      2.00000
     25     -14.7442      2.00000
     26     -14.6868      2.00000
     27      -3.7214      2.00000
     28      -3.7133      2.00000
     29      -3.3430      2.00000
     30      -3.1666      2.00000
     31      -2.9974      2.00000
     32      -2.4190      2.00000
     33      -1.8354      2.00000
     34      -1.7888      2.00000
     35      -1.7498      2.00000
     36      -1.7052      2.00000
     37      -1.7039      2.00000
     38      -1.5748      2.00000
     39      -1.0907      2.00000
     40      -0.9496      2.00000
     41      -0.9130      2.00000
     42      -0.8841      2.00000
     43      -0.8322      2.00000
     44      -0.8029      2.00000
     45      -0.7866      2.00000
     46      -0.6362      2.00000
     47      -0.5923      2.00000
     48      -0.3707      2.00000
     49      -0.3589      2.00000
     50      -0.2003      2.00000
     51      -0.1427      2.00000
     52       0.2370      2.00000
     53       0.2751      2.00000
     54       0.3942      2.00000
     55       0.4518      2.00000
     56       0.5612      2.00000
     57       2.9726      0.00000
     58       3.1652      0.00000
     59       4.2132      0.00000
     60       4.2535      0.00000
     61       4.3526      0.00000
     62       4.4985      0.00000
     63       4.5664      0.00000
     64       4.6997      0.00000

 k-point     9 :       0.1860    0.0000    0.0000
  band No.  band energies     occupation 
      1     -63.0016      2.00000
      2     -62.9997      2.00000
      3     -62.9916      2.00000
      4     -62.9897      2.00000
      5     -36.9904      2.00000
      6     -36.9875      2.00000
      7     -36.9840      2.00000
      8     -36.9780      2.00000
      9     -36.9460      2.00000
     10     -36.8981      2.00000
     11     -36.8840      2.00000
     12     -36.8623      2.00000
     13     -36.8361      2.00000
     14     -36.8148      2.00000
     15     -36.8092      2.00000
     16     -36.8067      2.00000
     17     -16.4395      2.00000
     18     -16.3019      2.00000
     19     -15.4494      2.00000
     20     -15.3261      2.00000
     21     -15.3106      2.00000
     22     -15.2301      2.00000
     23     -14.8523      2.00000
     24     -14.8318      2.00000
     25     -14.7506      2.00000
     26     -14.6903      2.00000
     27      -3.7818      2.00000
     28      -3.7683      2.00000
     29      -3.3187      2.00000
     30      -3.1452      2.00000
     31      -2.9890      2.00000
     32      -2.3918      2.00000
     33      -1.8962      2.00000
     34      -1.8538      2.00000
     35      -1.8168      2.00000
     36      -1.7463      2.00000
     37      -1.7099      2.00000
     38      -1.5828      2.00000
     39      -1.1263      2.00000
     40      -0.9632      2.00000
     41      -0.9179      2.00000
     42      -0.8564      2.00000
     43      -0.8541      2.00000
     44      -0.8281      2.00000
     45      -0.8043      2.00000
     46      -0.6342      2.00000
     47      -0.5608      2.00000
     48      -0.3871      2.00000
     49      -0.3547      2.00000
     50      -0.2580      2.00000
     51      -0.1291      2.00000
     52       0.2536      2.00000
     53       0.2991      2.00000
     54       0.3731      2.00000
     55       0.4984      2.00000
     56       0.5807      2.00000
     57       3.0087      0.00000
     58       3.2094      0.00000
     59       4.2006      0.00000
     60       4.2379      0.00000
     61       4.3488      0.00000
     62       4.4661      0.00000
     63       4.5430      0.00000
     64       4.6024      0.00000

 k-point    10 :       0.2093    0.0000    0.0000
  band No.  band energies     occupation 
      1     -63.0012      2.00000
      2     -62.9993      2.00000
      3     -62.9917      2.00000
      4     -62.9898      2.00000
      5     -36.9898      2.00000
      6     -36.9871      2.00000
      7     -36.9836      2.00000
      8     -36.9778      2.00000
      9     -36.9458      2.00000
     10     -36.8987      2.00000
     11     -36.8891      2.00000
     12     -36.8676      2.00000
     13     -36.8365      2.00000
     14     -36.8183      2.00000
     15     -36.8116      2.00000
     16     -36.8067      2.00000
     17     -16.3881      2.00000
     18     -16.2487      2.00000
     19     -15.4369      2.00000
     20     -15.3079      2.00000
     21     -15.3035      2.00000
     22     -15.2253      2.00000
     23     -14.8473      2.00000
     24     -14.8262      2.00000
     25     -14.7578      2.00000
     26     -14.6943      2.00000
     27      -3.8369      2.00000
     28      -3.8170      2.00000
     29      -3.2928      2.00000
     30      -3.1227      2.00000
     31      -2.9824      2.00000
     32      -2.3610      2.00000
     33      -2.0117      2.00000
     34      -1.9305      2.00000
     35      -1.8793      2.00000
     36      -1.7334      2.00000
     37      -1.7184      2.00000
     38      -1.5948      2.00000
     39      -1.1613      2.00000
     40      -0.9739      2.00000
     41      -0.9303      2.00000
     42      -0.8793      2.00000
     43      -0.8541      2.00000
     44      -0.8354      2.00000
     45      -0.8179      2.00000
     46      -0.6349      2.00000
     47      -0.5502      2.00000
     48      -0.4231      2.00000
     49      -0.3207      2.00000
     50      -0.3141      2.00000
     51      -0.1043      2.00000
     52       0.2645      2.00000
     53       0.3190      2.00000
     54       0.3453      2.00000
     55       0.5422      2.00000
     56       0.5926      2.00000
     57       3.0417      0.00000
     58       3.2523      0.00000
     59       4.1852      0.00000
     60       4.2157      0.00000
     61       4.2893      0.00000
     62       4.4907      0.00000
     63       4.5104      0.00000
     64       4.5240      0.00000

 k-point    11 :       0.2326    0.0000    0.0000
  band No.  band energies     occupation 
      1     -63.0007      2.00000
      2     -62.9989      2.00000
      3     -62.9918      2.00000
      4     -62.9899      2.00000
      5     -36.9893      2.00000
      6     -36.9866      2.00000
      7     -36.9833      2.00000
      8     -36.9776      2.00000
      9     -36.9455      2.00000
     10     -36.8996      2.00000
     11     -36.8942      2.00000
     12     -36.8729      2.00000
     13     -36.8370      2.00000
     14     -36.8217      2.00000
     15     -36.8139      2.00000
     16     -36.8069      2.00000
     17     -16.3329      2.00000
     18     -16.1912      2.00000
     19     -15.4275      2.00000
     20     -15.2942      2.00000
     21     -15.2906      2.00000
     22     -15.2203      2.00000
     23     -14.8420      2.00000
     24     -14.8204      2.00000
     25     -14.7655      2.00000
     26     -14.6988      2.00000
     27      -3.8850      2.00000
     28      -3.8574      2.00000
     29      -3.2658      2.00000
     30      -3.1005      2.00000
     31      -2.9773      2.00000
     32      -2.3288      2.00000
     33      -2.1257      2.00000
     34      -2.0423      2.00000
     35      -1.9101      2.00000
     36      -1.7287      2.00000
     37      -1.7189      2.00000
     38      -1.6119      2.00000
     39      -1.1951      2.00000
     40      -0.9810      2.00000
     41      -0.9534      2.00000
     42      -0.8997      2.00000
     43      -0.8818      2.00000
     44      -0.8683      2.00000
     45      -0.7886      2.00000
     46      -0.6373      2.00000
     47      -0.5576      2.00000
     48      -0.4573      2.00000
     49      -0.3647      2.00000
     50      -0.2745      2.00000
     51      -0.0746      2.00000
     52       0.2692      2.00000
     53       0.3107      2.00000
     54       0.3357      2.00000
     55       0.5796      2.00000
     56       0.5963      2.00000
     57       3.0699      0.00000
     58       3.2916      0.00000
     59       4.1684      0.00000
     60       4.1855      0.00000
     61       4.2165      0.00000
     62       4.4691      0.00000
     63       4.4812      0.00000
     64       4.5369      0.00000

 k-point    12 :       0.2558    0.0000    0.0000
  band No.  band energies     occupation 
      1     -63.0003      2.00000
      2     -62.9984      2.00000
      3     -62.9919      2.00000
      4     -62.9900      2.00000
      5     -36.9887      2.00000
      6     -36.9861      2.00000
      7     -36.9829      2.00000
      8     -36.9774      2.00000
      9     -36.9453      2.00000
     10     -36.9006      2.00000
     11     -36.8995      2.00000
     12     -36.8782      2.00000
     13     -36.8375      2.00000
     14     -36.8251      2.00000
     15     -36.8160      2.00000
     16     -36.8073      2.00000
     17     -16.2743      2.00000
     18     -16.1301      2.00000
     19     -15.4221      2.00000
     20     -15.2827      2.00000
     21     -15.2753      2.00000
     22     -15.2152      2.00000
     23     -14.8368      2.00000
     24     -14.8143      2.00000
     25     -14.7736      2.00000
     26     -14.7037      2.00000
     27      -3.9241      2.00000
     28      -3.8883      2.00000
     29      -3.2382      2.00000
     30      -3.0805      2.00000
     31      -2.9737      2.00000
     32      -2.3087      2.00000
     33      -2.2352      2.00000
     34      -2.1382      2.00000
     35      -1.9443      2.00000
     36      -1.7401      2.00000
     37      -1.7034      2.00000
     38      -1.6345      2.00000
     39      -1.2271      2.00000
     40      -0.9902      2.00000
     41      -0.9849      2.00000
     42      -0.9428      2.00000
     43      -0.9174      2.00000
     44      -0.8763      2.00000
     45      -0.7620      2.00000
     46      -0.6402      2.00000
     47      -0.5764      2.00000
     48      -0.4857      2.00000
     49      -0.4063      2.00000
     50      -0.2246      2.00000
     51      -0.0428      2.00000
     52       0.2676      2.00000
     53       0.2693      2.00000
     54       0.3496      2.00000
     55       0.5918      2.00000
     56       0.6079      2.00000
     57       3.0922      0.00000
     58       3.3254      0.00000
     59       4.1488      0.00000
     60       4.1497      0.00000
     61       4.1523      0.00000
     62       4.4388      0.00000
     63       4.4618      0.00000
     64       4.5857      0.00000

 k-point    13 :       0.2791    0.0000    0.0000
  band No.  band energies     occupation 
      1     -62.9998      2.00000
      2     -62.9979      2.00000
      3     -62.9921      2.00000
      4     -62.9902      2.00000
      5     -36.9881      2.00000
      6     -36.9856      2.00000
      7     -36.9826      2.00000
      8     -36.9773      2.00000
      9     -36.9451      2.00000
     10     -36.9047      2.00000
     11     -36.9018      2.00000
     12     -36.8833      2.00000
     13     -36.8382      2.00000
     14     -36.8284      2.00000
     15     -36.8178      2.00000
     16     -36.8079      2.00000
     17     -16.2130      2.00000
     18     -16.0661      2.00000
     19     -15.4211      2.00000
     20     -15.2694      2.00000
     21     -15.2630      2.00000
     22     -15.2100      2.00000
     23     -14.8316      2.00000
     24     -14.8082      2.00000
     25     -14.7818      2.00000
     26     -14.7090      2.00000
     27      -3.9532      2.00000
     28      -3.9083      2.00000
     29      -3.2108      2.00000
     30      -3.0657      2.00000
     31      -2.9715      2.00000
     32      -2.3522      2.00000
     33      -2.3367      2.00000
     34      -2.1656      2.00000
     35      -1.9803      2.00000
     36      -1.7516      2.00000
     37      -1.6874      2.00000
     38      -1.6622      2.00000
     39      -1.2568      2.00000
     40      -1.0417      2.00000
     41      -1.0186      2.00000
     42      -0.9815      2.00000
     43      -0.9328      2.00000
     44      -0.8775      2.00000
     45      -0.7396      2.00000
     46      -0.6422      2.00000
     47      -0.6022      2.00000
     48      -0.5081      2.00000
     49      -0.4373      2.00000
     50      -0.1771      2.00000
     51      -0.0101      2.00000
     52       0.2219      2.00000
     53       0.2602      2.00000
     54       0.3609      2.00000
     55       0.5799      2.00000
     56       0.6251      2.00000
     57       3.1091      0.00000
     58       3.3521      0.00000
     59       4.0940      0.00000
     60       4.1104      0.00000
     61       4.1402      0.00000
     62       4.4320      0.00000
     63       4.4520      0.00000
     64       4.6200      0.00000

 k-point    14 :       0.3023    0.0000    0.0000
  band No.  band energies     occupation 
      1     -62.9993      2.00000
      2     -62.9974      2.00000
      3     -62.9923      2.00000
      4     -62.9904      2.00000
      5     -36.9875      2.00000
      6     -36.9850      2.00000
      7     -36.9822      2.00000
      8     -36.9772      2.00000
      9     -36.9450      2.00000
     10     -36.9098      2.00000
     11     -36.9031      2.00000
     12     -36.8883      2.00000
     13     -36.8390      2.00000
     14     -36.8315      2.00000
     15     -36.8192      2.00000
     16     -36.8087      2.00000
     17     -16.1499      2.00000
     18     -15.9998      2.00000
     19     -15.4246      2.00000
     20     -15.2552      2.00000
     21     -15.2549      2.00000
     22     -15.2049      2.00000
     23     -14.8267      2.00000
     24     -14.8020      2.00000
     25     -14.7896      2.00000
     26     -14.7146      2.00000
     27      -3.9711      2.00000
     28      -3.9166      2.00000
     29      -3.1840      2.00000
     30      -3.0612      2.00000
     31      -2.9705      2.00000
     32      -2.4561      2.00000
     33      -2.4248      2.00000
     34      -2.1273      2.00000
     35      -2.0172      2.00000
     36      -1.7623      2.00000
     37      -1.6936      2.00000
     38      -1.6715      2.00000
     39      -1.2838      2.00000
     40      -1.1060      2.00000
     41      -1.0990      2.00000
     42      -0.9770      2.00000
     43      -0.9471      2.00000
     44      -0.8726      2.00000
     45      -0.7221      2.00000
     46      -0.6430      2.00000
     47      -0.6321      2.00000
     48      -0.5264      2.00000
     49      -0.4580      2.00000
     50      -0.1354      2.00000
     51       0.0232      2.00000
     52       0.1702      2.00000
     53       0.2479      2.00000
     54       0.3697      2.00000
     55       0.5620      2.00000
     56       0.6304      2.00000
     57       3.1221      0.00000
     58       3.3708      0.00000
     59       4.0509      0.00000
     60       4.0754      0.00000
     61       4.1352      0.00000
     62       4.4447      0.00000
     63       4.4488      0.00000
     64       4.6267      0.00000

 k-point    15 :       0.3256    0.0000    0.0000
  band No.  band energies     occupation 
      1     -62.9988      2.00000
      2     -62.9969      2.00000
      3     -62.9925      2.00000
      4     -62.9906      2.00000
      5     -36.9868      2.00000
      6     -36.9845      2.00000
      7     -36.9819      2.00000
      8     -36.9771      2.00000
      9     -36.9448      2.00000
     10     -36.9147      2.00000
     11     -36.9046      2.00000
     12     -36.8929      2.00000
     13     -36.8398      2.00000
     14     -36.8343      2.00000
     15     -36.8203      2.00000
     16     -36.8095      2.00000
     17     -16.0857      2.00000
     18     -15.9320      2.00000
     19     -15.4326      2.00000
     20     -15.2522      2.00000
     21     -15.2409      2.00000
     22     -15.2000      2.00000
     23     -14.8222      2.00000
     24     -14.7966      2.00000
     25     -14.7959      2.00000
     26     -14.7202      2.00000
     27      -3.9770      2.00000
     28      -3.9121      2.00000
     29      -3.1583      2.00000
     30      -3.0735      2.00000
     31      -2.9707      2.00000
     32      -2.5753      2.00000
     33      -2.4928      2.00000
     34      -2.0676      2.00000
     35      -2.0545      2.00000
     36      -1.7711      2.00000
     37      -1.7267      2.00000
     38      -1.6563      2.00000
     39      -1.3082      2.00000
     40      -1.1830      2.00000
     41      -1.1790      2.00000
     42      -0.9672      2.00000
     43      -0.9625      2.00000
     44      -0.8626      2.00000
     45      -0.7100      2.00000
     46      -0.6638      2.00000
     47      -0.6431      2.00000
     48      -0.5426      2.00000
     49      -0.4697      2.00000
     50      -0.1027      2.00000
     51       0.0570      2.00000
     52       0.1175      2.00000
     53       0.2319      2.00000
     54       0.3761      2.00000
     55       0.5398      2.00000
     56       0.6238      2.00000
     57       3.1335      0.00000
     58       3.3813      0.00000
     59       4.0199      0.00000
     60       4.0470      0.00000
     61       4.1397      0.00000
     62       4.4496      0.00000
     63       4.4711      0.00000
     64       4.6171      0.00000

 k-point    16 :       0.3488    0.0000    0.0000
  band No.  band energies     occupation 
      1     -62.9982      2.00000
      2     -62.9964      2.00000
      3     -62.9927      2.00000
      4     -62.9909      2.00000
      5     -36.9861      2.00000
      6     -36.9839      2.00000
      7     -36.9817      2.00000
      8     -36.9772      2.00000
      9     -36.9446      2.00000
     10     -36.9194      2.00000
     11     -36.9061      2.00000
     12     -36.8971      2.00000
     13     -36.8406      2.00000
     14     -36.8368      2.00000
     15     -36.8210      2.00000
     16     -36.8106      2.00000
     17     -16.0210      2.00000
     18     -15.8634      2.00000
     19     -15.4451      2.00000
     20     -15.2557      2.00000
     21     -15.2273      2.00000
     22     -15.1953      2.00000
     23     -14.8181      2.00000
     24     -14.8023      2.00000
     25     -14.7900      2.00000
     26     -14.7259      2.00000
     27      -3.9706      2.00000
     28      -3.8946      2.00000
     29      -3.1344      2.00000
     30      -3.1083      2.00000
     31      -2.9721      2.00000
     32      -2.6986      2.00000
     33      -2.5346      2.00000
     34      -2.0922      2.00000
     35      -1.9974      2.00000
     36      -1.7767      2.00000
     37      -1.7587      2.00000
     38      -1.6431      2.00000
     39      -1.3303      2.00000
     40      -1.2656      2.00000
     41      -1.2564      2.00000
     42      -0.9826      2.00000
     43      -0.9530      2.00000
     44      -0.8482      2.00000
     45      -0.7034      2.00000
     46      -0.6943      2.00000
     47      -0.6442      2.00000
     48      -0.5581      2.00000
     49      -0.4734      2.00000
     50      -0.0848      2.00000
     51       0.0712      2.00000
     52       0.0914      2.00000
     53       0.2133      2.00000
     54       0.3803      2.00000
     55       0.5153      2.00000
     56       0.6059      2.00000
     57       3.1452      0.00000
     58       3.3842      0.00000
     59       3.9998      0.00000
     60       4.0267      0.00000
     61       4.1548      0.00000
     62       4.4523      0.00000
     63       4.5039      0.00000
     64       4.6017      0.00000

 k-point    17 :       0.3721    0.0000    0.0000
  band No.  band energies     occupation 
      1     -62.9977      2.00000
      2     -62.9958      2.00000
      3     -62.9930      2.00000
      4     -62.9911      2.00000
      5     -36.9855      2.00000
      6     -36.9832      2.00000
      7     -36.9815      2.00000
      8     -36.9773      2.00000
      9     -36.9444      2.00000
     10     -36.9238      2.00000
     11     -36.9076      2.00000
     12     -36.9008      2.00000
     13     -36.8414      2.00000
     14     -36.8390      2.00000
     15     -36.8214      2.00000
     16     -36.8117      2.00000
     17     -15.9568      2.00000
     18     -15.7950      2.00000
     19     -15.4622      2.00000
     20     -15.2663      2.00000
     21     -15.2152      2.00000
     22     -15.1911      2.00000
     23     -14.8146      2.00000
     24     -14.8064      2.00000
     25     -14.7843      2.00000
     26     -14.7315      2.00000
     27      -3.9517      2.00000
     28      -3.8639      2.00000
     29      -3.1665      2.00000
     30      -3.1129      2.00000
     31      -2.9749      2.00000
     32      -2.8226      2.00000
     33      -2.5490      2.00000
     34      -2.1311      2.00000
     35      -1.9196      2.00000
     36      -1.7865      2.00000
     37      -1.7783      2.00000
     38      -1.6343      2.00000
     39      -1.3507      2.00000
     40      -1.3415      2.00000
     41      -1.3341      2.00000
     42      -1.0121      2.00000
     43      -0.9347      2.00000
     44      -0.8306      2.00000
     45      -0.7195      2.00000
     46      -0.7021      2.00000
     47      -0.6476      2.00000
     48      -0.5743      2.00000
     49      -0.4695      2.00000
     50      -0.0934      2.00000
     51       0.0450      2.00000
     52       0.1264      2.00000
     53       0.1936      2.00000
     54       0.3828      2.00000
     55       0.4903      2.00000
     56       0.5786      2.00000
     57       3.1588      0.00000
     58       3.3803      0.00000
     59       3.9889      0.00000
     60       4.0140      0.00000
     61       4.1804      0.00000
     62       4.4557      0.00000
     63       4.5350      0.00000
     64       4.5839      0.00000

 k-point    18 :       0.3953    0.0000    0.0000
  band No.  band energies     occupation 
      1     -62.9972      2.00000
      2     -62.9953      2.00000
      3     -62.9933      2.00000
      4     -62.9914      2.00000
      5     -36.9848      2.00000
      6     -36.9826      2.00000
      7     -36.9814      2.00000
      8     -36.9775      2.00000
      9     -36.9441      2.00000
     10     -36.9277      2.00000
     11     -36.9090      2.00000
     12     -36.9041      2.00000
     13     -36.8422      2.00000
     14     -36.8407      2.00000
     15     -36.8214      2.00000
     16     -36.8129      2.00000
     17     -15.8938      2.00000
     18     -15.7273      2.00000
     19     -15.4841      2.00000
     20     -15.2845      2.00000
     21     -15.2048      2.00000
     22     -15.1874      2.00000
     23     -14.8119      2.00000
     24     -14.8090      2.00000
     25     -14.7788      2.00000
     26     -14.7368      2.00000
     27      -3.9203      2.00000
     28      -3.8199      2.00000
     29      -3.2426      2.00000
     30      -3.0960      2.00000
     31      -2.9789      2.00000
     32      -2.9434      2.00000
     33      -2.5410      2.00000
     34      -2.1717      2.00000
     35      -1.8355      2.00000
     36      -1.8073      2.00000
     37      -1.7748      2.00000
     38      -1.6344      2.00000
     39      -1.4087      2.00000
     40      -1.4037      2.00000
     41      -1.3697      2.00000
     42      -1.0551      2.00000
     43      -0.9129      2.00000
     44      -0.8107      2.00000
     45      -0.7361      2.00000
     46      -0.7058      2.00000
     47      -0.6544      2.00000
     48      -0.5918      2.00000
     49      -0.4586      2.00000
     50      -0.1300      2.00000
     51       0.0434      2.00000
     52       0.1624      2.00000
     53       0.1737      2.00000
     54       0.3838      2.00000
     55       0.4667      2.00000
     56       0.5437      2.00000
     57       3.1752      0.00000
     58       3.3703      0.00000
     59       3.9851      0.00000
     60       4.0076      0.00000
     61       4.2159      0.00000
     62       4.4594      0.00000
     63       4.5559      0.00000
     64       4.5652      0.00000

 k-point    19 :       0.4186    0.0000    0.0000
  band No.  band energies     occupation 
      1     -62.9967      2.00000
      2     -62.9948      2.00000
      3     -62.9936      2.00000
      4     -62.9918      2.00000
      5     -36.9842      2.00000
      6     -36.9819      2.00000
      7     -36.9814      2.00000
      8     -36.9778      2.00000
      9     -36.9436      2.00000
     10     -36.9312      2.00000
     11     -36.9102      2.00000
     12     -36.9067      2.00000
     13     -36.8429      2.00000
     14     -36.8420      2.00000
     15     -36.8211      2.00000
     16     -36.8141      2.00000
     17     -15.8328      2.00000
     18     -15.6613      2.00000
     19     -15.5109      2.00000
     20     -15.3102      2.00000
     21     -15.1963      2.00000
     22     -15.1844      2.00000
     23     -14.8102      2.00000
     24     -14.8098      2.00000
     25     -14.7737      2.00000
     26     -14.7418      2.00000
     27      -3.8768      2.00000
     28      -3.7629      2.00000
     29      -3.3294      2.00000
     30      -3.1068      2.00000
     31      -3.0367      2.00000
     32      -2.9842      2.00000
     33      -2.5174      2.00000
     34      -2.2145      2.00000
     35      -1.8188      2.00000
     36      -1.7653      2.00000
     37      -1.7473      2.00000
     38      -1.6497      2.00000
     39      -1.4773      2.00000
     40      -1.4440      2.00000
     41      -1.3878      2.00000
     42      -1.1131      2.00000
     43      -0.8883      2.00000
     44      -0.7900      2.00000
     45      -0.7428      2.00000
     46      -0.7135      2.00000
     47      -0.6643      2.00000
     48      -0.6108      2.00000
     49      -0.4414      2.00000
     50      -0.1785      2.00000
     51       0.0529      2.00000
     52       0.1546      2.00000
     53       0.1996      2.00000
     54       0.3840      2.00000
     55       0.4455      2.00000
     56       0.5038      2.00000
     57       3.1944      0.00000
     58       3.3554      0.00000
     59       3.9865      0.00000
     60       4.0055      0.00000
     61       4.2598      0.00000
     62       4.4636      0.00000
     63       4.5465      0.00000
     64       4.5603      0.00000

 k-point    20 :       0.4419    0.0000    0.0000
  band No.  band energies     occupation 
      1     -62.9962      2.00000
      2     -62.9943      2.00000
      3     -62.9940      2.00000
      4     -62.9921      2.00000
      5     -36.9835      2.00000
      6     -36.9815      2.00000
      7     -36.9812      2.00000
      8     -36.9782      2.00000
      9     -36.9430      2.00000
     10     -36.9343      2.00000
     11     -36.9111      2.00000
     12     -36.9088      2.00000
     13     -36.8434      2.00000
     14     -36.8430      2.00000
     15     -36.8206      2.00000
     16     -36.8154      2.00000
     17     -15.7744      2.00000
     18     -15.5977      2.00000
     19     -15.5428      2.00000
     20     -15.3433      2.00000
     21     -15.1898      2.00000
     22     -15.1822      2.00000
     23     -14.8102      2.00000
     24     -14.8086      2.00000
     25     -14.7689      2.00000
     26     -14.7466      2.00000
     27      -3.8219      2.00000
     28      -3.6937      2.00000
     29      -3.4206      2.00000
     30      -3.2029      2.00000
     31      -3.0432      2.00000
     32      -2.9908      2.00000
     33      -2.4836      2.00000
     34      -2.2594      2.00000
     35      -1.8195      2.00000
     36      -1.7492      2.00000
     37      -1.6812      2.00000
     38      -1.6602      2.00000
     39      -1.5342      2.00000
     40      -1.4602      2.00000
     41      -1.4051      2.00000
     42      -1.1847      2.00000
     43      -0.8620      2.00000
     44      -0.7727      2.00000
     45      -0.7410      2.00000
     46      -0.7212      2.00000
     47      -0.6770      2.00000
     48      -0.6316      2.00000
     49      -0.4183      2.00000
     50      -0.2284      2.00000
     51       0.0653      2.00000
     52       0.1367      2.00000
     53       0.2381      2.00000
     54       0.3836      2.00000
     55       0.4279      2.00000
     56       0.4616      2.00000
     57       3.2163      0.00000
     58       3.3364      0.00000
     59       3.9907      0.00000
     60       4.0054      0.00000
     61       4.3100      0.00000
     62       4.4689      0.00000
     63       4.5284      0.00000
     64       4.5459      0.00000

 k-point    21 :       0.4651    0.0000    0.0000
  band No.  band energies     occupation 
      1     -62.9957      2.00000
      2     -62.9944      2.00000
      3     -62.9938      2.00000
      4     -62.9925      2.00000
      5     -36.9829      2.00000
      6     -36.9817      2.00000
      7     -36.9806      2.00000
      8     -36.9787      2.00000
      9     -36.9420      2.00000
     10     -36.9369      2.00000
     11     -36.9116      2.00000
     12     -36.9104      2.00000
     13     -36.8438      2.00000
     14     -36.8437      2.00000
     15     -36.8198      2.00000
     16     -36.8166      2.00000
     17     -15.7194      2.00000
     18     -15.5797      2.00000
     19     -15.5373      2.00000
     20     -15.3832      2.00000
     21     -15.1852      2.00000
     22     -15.1810      2.00000
     23     -14.8097      2.00000
     24     -14.8081      2.00000
     25     -14.7643      2.00000
     26     -14.7511      2.00000
     27      -3.7565      2.00000
     28      -3.6130      2.00000
     29      -3.5117      2.00000
     30      -3.3143      2.00000
     31      -3.0316      2.00000
     32      -2.9989      2.00000
     33      -2.4434      2.00000
     34      -2.3059      2.00000
     35      -1.8091      2.00000
     36      -1.7259      2.00000
     37      -1.7202      2.00000
     38      -1.6225      2.00000
     39      -1.5319      2.00000
     40      -1.4596      2.00000
     41      -1.4216      2.00000
     42      -1.2668      2.00000
     43      -0.8351      2.00000
     44      -0.7705      2.00000
     45      -0.7328      2.00000
     46      -0.7174      2.00000
     47      -0.6914      2.00000
     48      -0.6537      2.00000
     49      -0.3900      2.00000
     50      -0.2755      2.00000
     51       0.0783      2.00000
     52       0.1203      2.00000
     53       0.2781      2.00000
     54       0.3801      2.00000
     55       0.4144      2.00000
     56       0.4221      2.00000
     57       3.2402      0.00000
     58       3.3143      0.00000
     59       3.9960      0.00000
     60       4.0054      0.00000
     61       4.3641      0.00000
     62       4.4759      0.00000
     63       4.5118      0.00000
     64       4.5145      0.00000

 k-point    22 :       0.4884    0.0000    0.0000
  band No.  band energies     occupation 
      1     -62.9952      2.00000
      2     -62.9948      2.00000
      3     -62.9934      2.00000
      4     -62.9929      2.00000
      5     -36.9824      2.00000
      6     -36.9820      2.00000
      7     -36.9799      2.00000
      8     -36.9793      2.00000
      9     -36.9407      2.00000
     10     -36.9390      2.00000
     11     -36.9117      2.00000
     12     -36.9113      2.00000
     13     -36.8440      2.00000
     14     -36.8440      2.00000
     15     -36.8188      2.00000
     16     -36.8178      2.00000
     17     -15.6683      2.00000
     18     -15.6217      2.00000
     19     -15.4810      2.00000
     20     -15.4293      2.00000
     21     -15.1823      2.00000
     22     -15.1810      2.00000
     23     -14.8089      2.00000
     24     -14.8083      2.00000
     25     -14.7598      2.00000
     26     -14.7555      2.00000
     27      -3.6819      2.00000
     28      -3.5997      2.00000
     29      -3.5219      2.00000
     30      -3.4217      2.00000
     31      -3.0195      2.00000
     32      -3.0085      2.00000
     33      -2.3992      2.00000
     34      -2.3529      2.00000
     35      -1.7880      2.00000
     36      -1.7575      2.00000
     37      -1.6953      2.00000
     38      -1.6580      2.00000
     39      -1.4503      2.00000
     40      -1.4479      2.00000
     41      -1.4370      2.00000
     42      -1.3558      2.00000
     43      -0.8091      2.00000
     44      -0.7861      2.00000
     45      -0.7207      2.00000
     46      -0.7064      2.00000
     47      -0.6993      2.00000
     48      -0.6767      2.00000
     49      -0.3566      2.00000
     50      -0.3184      2.00000
     51       0.0915      2.00000
     52       0.1054      2.00000
     53       0.3190      2.00000
     54       0.3581      2.00000
     55       0.4033      2.00000
     56       0.4054      2.00000
     57       3.2652      0.00000
     58       3.2902      0.00000
     59       4.0008      0.00000
     60       4.0040      0.00000
     61       4.4189      0.00000
     62       4.4705      0.00000
     63       4.4852      0.00000
     64       4.4973      0.00000

 k-point    23 :      -0.4884    0.0000    0.0000
  band No.  band energies     occupation 
      1     -62.9952      2.00000
      2     -62.9948      2.00000
      3     -62.9934      2.00000
      4     -62.9929      2.00000
      5     -36.9824      2.00000
      6     -36.9820      2.00000
      7     -36.9799      2.00000
      8     -36.9793      2.00000
      9     -36.9407      2.00000
     10     -36.9390      2.00000
     11     -36.9117      2.00000
     12     -36.9113      2.00000
     13     -36.8440      2.00000
     14     -36.8440      2.00000
     15     -36.8188      2.00000
     16     -36.8178      2.00000
     17     -15.6683      2.00000
     18     -15.6217      2.00000
     19     -15.4810      2.00000
     20     -15.4293      2.00000
     21     -15.1823      2.00000
     22     -15.1810      2.00000
     23     -14.8089      2.00000
     24     -14.8083      2.00000
     25     -14.7598      2.00000
     26     -14.7555      2.00000
     27      -3.6819      2.00000
     28      -3.5997      2.00000
     29      -3.5219      2.00000
     30      -3.4217      2.00000
     31      -3.0195      2.00000
     32      -3.0085      2.00000
     33      -2.3992      2.00000
     34      -2.3529      2.00000
     35      -1.7880      2.00000
     36      -1.7575      2.00000
     37      -1.6953      2.00000
     38      -1.6580      2.00000
     39      -1.4503      2.00000
     40      -1.4479      2.00000
     41      -1.4370      2.00000
     42      -1.3558      2.00000
     43      -0.8091      2.00000
     44      -0.7861      2.00000
     45      -0.7207      2.00000
     46      -0.7064      2.00000
     47      -0.6993      2.00000
     48      -0.6767      2.00000
     49      -0.3566      2.00000
     50      -0.3184      2.00000
     51       0.0915      2.00000
     52       0.1054      2.00000
     53       0.3190      2.00000
     54       0.3581      2.00000
     55       0.4033      2.00000
     56       0.4054      2.00000
     57       3.2652      0.00000
     58       3.2902      0.00000
     59       4.0008      0.00000
     60       4.0040      0.00000
     61       4.4189      0.00000
     62       4.4705      0.00000
     63       4.4852      0.00000
     64       4.4973      0.00000

 k-point    24 :      -0.4651    0.0000    0.0000
  band No.  band energies     occupation 
      1     -62.9957      2.00000
      2     -62.9944      2.00000
      3     -62.9938      2.00000
      4     -62.9925      2.00000
      5     -36.9829      2.00000
      6     -36.9817      2.00000
      7     -36.9806      2.00000
      8     -36.9787      2.00000
      9     -36.9420      2.00000
     10     -36.9369      2.00000
     11     -36.9116      2.00000
     12     -36.9104      2.00000
     13     -36.8438      2.00000
     14     -36.8437      2.00000
     15     -36.8198      2.00000
     16     -36.8166      2.00000
     17     -15.7194      2.00000
     18     -15.5797      2.00000
     19     -15.5373      2.00000
     20     -15.3832      2.00000
     21     -15.1852      2.00000
     22     -15.1810      2.00000
     23     -14.8097      2.00000
     24     -14.8081      2.00000
     25     -14.7643      2.00000
     26     -14.7511      2.00000
     27      -3.7565      2.00000
     28      -3.6130      2.00000
     29      -3.5117      2.00000
     30      -3.3143      2.00000
     31      -3.0316      2.00000
     32      -2.9989      2.00000
     33      -2.4434      2.00000
     34      -2.3059      2.00000
     35      -1.8091      2.00000
     36      -1.7259      2.00000
     37      -1.7202      2.00000
     38      -1.6225      2.00000
     39      -1.5319      2.00000
     40      -1.4596      2.00000
     41      -1.4216      2.00000
     42      -1.2668      2.00000
     43      -0.8351      2.00000
     44      -0.7705      2.00000
     45      -0.7328      2.00000
     46      -0.7174      2.00000
     47      -0.6914      2.00000
     48      -0.6537      2.00000
     49      -0.3900      2.00000
     50      -0.2755      2.00000
     51       0.0783      2.00000
     52       0.1203      2.00000
     53       0.2781      2.00000
     54       0.3801      2.00000
     55       0.4144      2.00000
     56       0.4221      2.00000
     57       3.2402      0.00000
     58       3.3143      0.00000
     59       3.9960      0.00000
     60       4.0054      0.00000
     61       4.3641      0.00000
     62       4.4759      0.00000
     63       4.5118      0.00000
     64       4.5145      0.00000

 k-point    25 :      -0.4419    0.0000    0.0000
  band No.  band energies     occupation 
      1     -62.9962      2.00000
      2     -62.9943      2.00000
      3     -62.9940      2.00000
      4     -62.9921      2.00000
      5     -36.9835      2.00000
      6     -36.9815      2.00000
      7     -36.9812      2.00000
      8     -36.9782      2.00000
      9     -36.9430      2.00000
     10     -36.9343      2.00000
     11     -36.9111      2.00000
     12     -36.9088      2.00000
     13     -36.8434      2.00000
     14     -36.8430      2.00000
     15     -36.8206      2.00000
     16     -36.8154      2.00000
     17     -15.7744      2.00000
     18     -15.5977      2.00000
     19     -15.5428      2.00000
     20     -15.3433      2.00000
     21     -15.1898      2.00000
     22     -15.1822      2.00000
     23     -14.8102      2.00000
     24     -14.8086      2.00000
     25     -14.7689      2.00000
     26     -14.7466      2.00000
     27      -3.8219      2.00000
     28      -3.6937      2.00000
     29      -3.4206      2.00000
     30      -3.2029      2.00000
     31      -3.0432      2.00000
     32      -2.9908      2.00000
     33      -2.4836      2.00000
     34      -2.2594      2.00000
     35      -1.8195      2.00000
     36      -1.7492      2.00000
     37      -1.6812      2.00000
     38      -1.6602      2.00000
     39      -1.5342      2.00000
     40      -1.4602      2.00000
     41      -1.4051      2.00000
     42      -1.1847      2.00000
     43      -0.8620      2.00000
     44      -0.7727      2.00000
     45      -0.7410      2.00000
     46      -0.7212      2.00000
     47      -0.6770      2.00000
     48      -0.6316      2.00000
     49      -0.4183      2.00000
     50      -0.2284      2.00000
     51       0.0653      2.00000
     52       0.1367      2.00000
     53       0.2381      2.00000
     54       0.3836      2.00000
     55       0.4279      2.00000
     56       0.4616      2.00000
     57       3.2163      0.00000
     58       3.3364      0.00000
     59       3.9907      0.00000
     60       4.0054      0.00000
     61       4.3100      0.00000
     62       4.4689      0.00000
     63       4.5284      0.00000
     64       4.5459      0.00000

 k-point    26 :      -0.4186    0.0000    0.0000
  band No.  band energies     occupation 
      1     -62.9967      2.00000
      2     -62.9948      2.00000
      3     -62.9936      2.00000
      4     -62.9918      2.00000
      5     -36.9842      2.00000
      6     -36.9819      2.00000
      7     -36.9814      2.00000
      8     -36.9778      2.00000
      9     -36.9436      2.00000
     10     -36.9312      2.00000
     11     -36.9102      2.00000
     12     -36.9067      2.00000
     13     -36.8429      2.00000
     14     -36.8420      2.00000
     15     -36.8211      2.00000
     16     -36.8141      2.00000
     17     -15.8328      2.00000
     18     -15.6613      2.00000
     19     -15.5109      2.00000
     20     -15.3102      2.00000
     21     -15.1963      2.00000
     22     -15.1844      2.00000
     23     -14.8102      2.00000
     24     -14.8098      2.00000
     25     -14.7737      2.00000
     26     -14.7418      2.00000
     27      -3.8768      2.00000
     28      -3.7629      2.00000
     29      -3.3294      2.00000
     30      -3.1068      2.00000
     31      -3.0367      2.00000
     32      -2.9842      2.00000
     33      -2.5174      2.00000
     34      -2.2145      2.00000
     35      -1.8188      2.00000
     36      -1.7653      2.00000
     37      -1.7473      2.00000
     38      -1.6497      2.00000
     39      -1.4773      2.00000
     40      -1.4440      2.00000
     41      -1.3878      2.00000
     42      -1.1131      2.00000
     43      -0.8883      2.00000
     44      -0.7900      2.00000
     45      -0.7428      2.00000
     46      -0.7135      2.00000
     47      -0.6643      2.00000
     48      -0.6108      2.00000
     49      -0.4414      2.00000
     50      -0.1785      2.00000
     51       0.0529      2.00000
     52       0.1546      2.00000
     53       0.1996      2.00000
     54       0.3840      2.00000
     55       0.4455      2.00000
     56       0.5038      2.00000
     57       3.1944      0.00000
     58       3.3554      0.00000
     59       3.9865      0.00000
     60       4.0055      0.00000
     61       4.2598      0.00000
     62       4.4636      0.00000
     63       4.5465      0.00000
     64       4.5603      0.00000

 k-point    27 :      -0.3953    0.0000    0.0000
  band No.  band energies     occupation 
      1     -62.9972      2.00000
      2     -62.9953      2.00000
      3     -62.9933      2.00000
      4     -62.9914      2.00000
      5     -36.9848      2.00000
      6     -36.9826      2.00000
      7     -36.9814      2.00000
      8     -36.9775      2.00000
      9     -36.9441      2.00000
     10     -36.9277      2.00000
     11     -36.9090      2.00000
     12     -36.9041      2.00000
     13     -36.8422      2.00000
     14     -36.8407      2.00000
     15     -36.8214      2.00000
     16     -36.8129      2.00000
     17     -15.8938      2.00000
     18     -15.7273      2.00000
     19     -15.4841      2.00000
     20     -15.2845      2.00000
     21     -15.2048      2.00000
     22     -15.1874      2.00000
     23     -14.8119      2.00000
     24     -14.8090      2.00000
     25     -14.7788      2.00000
     26     -14.7368      2.00000
     27      -3.9203      2.00000
     28      -3.8199      2.00000
     29      -3.2426      2.00000
     30      -3.0960      2.00000
     31      -2.9789      2.00000
     32      -2.9434      2.00000
     33      -2.5410      2.00000
     34      -2.1717      2.00000
     35      -1.8355      2.00000
     36      -1.8073      2.00000
     37      -1.7748      2.00000
     38      -1.6344      2.00000
     39      -1.4087      2.00000
     40      -1.4037      2.00000
     41      -1.3697      2.00000
     42      -1.0551      2.00000
     43      -0.9129      2.00000
     44      -0.8107      2.00000
     45      -0.7361      2.00000
     46      -0.7058      2.00000
     47      -0.6544      2.00000
     48      -0.5918      2.00000
     49      -0.4586      2.00000
     50      -0.1300      2.00000
     51       0.0434      2.00000
     52       0.1624      2.00000
     53       0.1737      2.00000
     54       0.3838      2.00000
     55       0.4667      2.00000
     56       0.5437      2.00000
     57       3.1752      0.00000
     58       3.3703      0.00000
     59       3.9851      0.00000
     60       4.0076      0.00000
     61       4.2159      0.00000
     62       4.4594      0.00000
     63       4.5559      0.00000
     64       4.5652      0.00000

 k-point    28 :      -0.3721    0.0000    0.0000
  band No.  band energies     occupation 
      1     -62.9977      2.00000
      2     -62.9958      2.00000
      3     -62.9930      2.00000
      4     -62.9911      2.00000
      5     -36.9855      2.00000
      6     -36.9832      2.00000
      7     -36.9815      2.00000
      8     -36.9773      2.00000
      9     -36.9444      2.00000
     10     -36.9238      2.00000
     11     -36.9076      2.00000
     12     -36.9008      2.00000
     13     -36.8414      2.00000
     14     -36.8390      2.00000
     15     -36.8214      2.00000
     16     -36.8117      2.00000
     17     -15.9568      2.00000
     18     -15.7950      2.00000
     19     -15.4622      2.00000
     20     -15.2663      2.00000
     21     -15.2152      2.00000
     22     -15.1911      2.00000
     23     -14.8146      2.00000
     24     -14.8064      2.00000
     25     -14.7843      2.00000
     26     -14.7315      2.00000
     27      -3.9517      2.00000
     28      -3.8639      2.00000
     29      -3.1665      2.00000
     30      -3.1129      2.00000
     31      -2.9749      2.00000
     32      -2.8226      2.00000
     33      -2.5490      2.00000
     34      -2.1311      2.00000
     35      -1.9196      2.00000
     36      -1.7865      2.00000
     37      -1.7783      2.00000
     38      -1.6343      2.00000
     39      -1.3507      2.00000
     40      -1.3415      2.00000
     41      -1.3341      2.00000
     42      -1.0121      2.00000
     43      -0.9347      2.00000
     44      -0.8306      2.00000
     45      -0.7195      2.00000
     46      -0.7021      2.00000
     47      -0.6476      2.00000
     48      -0.5743      2.00000
     49      -0.4695      2.00000
     50      -0.0934      2.00000
     51       0.0450      2.00000
     52       0.1264      2.00000
     53       0.1936      2.00000
     54       0.3828      2.00000
     55       0.4903      2.00000
     56       0.5786      2.00000
     57       3.1588      0.00000
     58       3.3803      0.00000
     59       3.9889      0.00000
     60       4.0140      0.00000
     61       4.1804      0.00000
     62       4.4557      0.00000
     63       4.5350      0.00000
     64       4.5839      0.00000

 k-point    29 :      -0.3488    0.0000    0.0000
  band No.  band energies     occupation 
      1     -62.9982      2.00000
      2     -62.9964      2.00000
      3     -62.9927      2.00000
      4     -62.9909      2.00000
      5     -36.9861      2.00000
      6     -36.9839      2.00000
      7     -36.9817      2.00000
      8     -36.9772      2.00000
      9     -36.9446      2.00000
     10     -36.9194      2.00000
     11     -36.9061      2.00000
     12     -36.8971      2.00000
     13     -36.8406      2.00000
     14     -36.8368      2.00000
     15     -36.8210      2.00000
     16     -36.8106      2.00000
     17     -16.0210      2.00000
     18     -15.8634      2.00000
     19     -15.4451      2.00000
     20     -15.2557      2.00000
     21     -15.2273      2.00000
     22     -15.1953      2.00000
     23     -14.8181      2.00000
     24     -14.8023      2.00000
     25     -14.7900      2.00000
     26     -14.7259      2.00000
     27      -3.9706      2.00000
     28      -3.8946      2.00000
     29      -3.1344      2.00000
     30      -3.1083      2.00000
     31      -2.9721      2.00000
     32      -2.6986      2.00000
     33      -2.5346      2.00000
     34      -2.0922      2.00000
     35      -1.9974      2.00000
     36      -1.7767      2.00000
     37      -1.7587      2.00000
     38      -1.6431      2.00000
     39      -1.3303      2.00000
     40      -1.2656      2.00000
     41      -1.2564      2.00000
     42      -0.9826      2.00000
     43      -0.9530      2.00000
     44      -0.8482      2.00000
     45      -0.7034      2.00000
     46      -0.6943      2.00000
     47      -0.6442      2.00000
     48      -0.5581      2.00000
     49      -0.4734      2.00000
     50      -0.0848      2.00000
     51       0.0712      2.00000
     52       0.0914      2.00000
     53       0.2133      2.00000
     54       0.3803      2.00000
     55       0.5153      2.00000
     56       0.6059      2.00000
     57       3.1452      0.00000
     58       3.3842      0.00000
     59       3.9998      0.00000
     60       4.0267      0.00000
     61       4.1548      0.00000
     62       4.4523      0.00000
     63       4.5039      0.00000
     64       4.6017      0.00000

 k-point    30 :      -0.3256    0.0000    0.0000
  band No.  band energies     occupation 
      1     -62.9988      2.00000
      2     -62.9969      2.00000
      3     -62.9925      2.00000
      4     -62.9906      2.00000
      5     -36.9868      2.00000
      6     -36.9845      2.00000
      7     -36.9819      2.00000
      8     -36.9771      2.00000
      9     -36.9448      2.00000
     10     -36.9147      2.00000
     11     -36.9046      2.00000
     12     -36.8929      2.00000
     13     -36.8398      2.00000
     14     -36.8343      2.00000
     15     -36.8203      2.00000
     16     -36.8095      2.00000
     17     -16.0857      2.00000
     18     -15.9320      2.00000
     19     -15.4326      2.00000
     20     -15.2522      2.00000
     21     -15.2409      2.00000
     22     -15.2000      2.00000
     23     -14.8222      2.00000
     24     -14.7966      2.00000
     25     -14.7959      2.00000
     26     -14.7202      2.00000
     27      -3.9770      2.00000
     28      -3.9121      2.00000
     29      -3.1583      2.00000
     30      -3.0735      2.00000
     31      -2.9707      2.00000
     32      -2.5753      2.00000
     33      -2.4928      2.00000
     34      -2.0676      2.00000
     35      -2.0545      2.00000
     36      -1.7711      2.00000
     37      -1.7267      2.00000
     38      -1.6563      2.00000
     39      -1.3082      2.00000
     40      -1.1830      2.00000
     41      -1.1790      2.00000
     42      -0.9672      2.00000
     43      -0.9625      2.00000
     44      -0.8626      2.00000
     45      -0.7100      2.00000
     46      -0.6638      2.00000
     47      -0.6431      2.00000
     48      -0.5426      2.00000
     49      -0.4697      2.00000
     50      -0.1027      2.00000
     51       0.0570      2.00000
     52       0.1175      2.00000
     53       0.2319      2.00000
     54       0.3761      2.00000
     55       0.5398      2.00000
     56       0.6238      2.00000
     57       3.1335      0.00000
     58       3.3813      0.00000
     59       4.0199      0.00000
     60       4.0470      0.00000
     61       4.1397      0.00000
     62       4.4496      0.00000
     63       4.4711      0.00000
     64       4.6171      0.00000

 k-point    31 :      -0.3023    0.0000    0.0000
  band No.  band energies     occupation 
      1     -62.9993      2.00000
      2     -62.9974      2.00000
      3     -62.9923      2.00000
      4     -62.9904      2.00000
      5     -36.9875      2.00000
      6     -36.9850      2.00000
      7     -36.9822      2.00000
      8     -36.9772      2.00000
      9     -36.9450      2.00000
     10     -36.9098      2.00000
     11     -36.9031      2.00000
     12     -36.8883      2.00000
     13     -36.8390      2.00000
     14     -36.8315      2.00000
     15     -36.8192      2.00000
     16     -36.8087      2.00000
     17     -16.1499      2.00000
     18     -15.9998      2.00000
     19     -15.4246      2.00000
     20     -15.2552      2.00000
     21     -15.2549      2.00000
     22     -15.2049      2.00000
     23     -14.8267      2.00000
     24     -14.8020      2.00000
     25     -14.7896      2.00000
     26     -14.7146      2.00000
     27      -3.9711      2.00000
     28      -3.9166      2.00000
     29      -3.1840      2.00000
     30      -3.0612      2.00000
     31      -2.9705      2.00000
     32      -2.4561      2.00000
     33      -2.4248      2.00000
     34      -2.1273      2.00000
     35      -2.0172      2.00000
     36      -1.7623      2.00000
     37      -1.6936      2.00000
     38      -1.6715      2.00000
     39      -1.2838      2.00000
     40      -1.1060      2.00000
     41      -1.0990      2.00000
     42      -0.9770      2.00000
     43      -0.9471      2.00000
     44      -0.8726      2.00000
     45      -0.7221      2.00000
     46      -0.6430      2.00000
     47      -0.6321      2.00000
     48      -0.5264      2.00000
     49      -0.4580      2.00000
     50      -0.1354      2.00000
     51       0.0232      2.00000
     52       0.1702      2.00000
     53       0.2479      2.00000
     54       0.3697      2.00000
     55       0.5620      2.00000
     56       0.6304      2.00000
     57       3.1221      0.00000
     58       3.3708      0.00000
     59       4.0509      0.00000
     60       4.0754      0.00000
     61       4.1352      0.00000
     62       4.4447      0.00000
     63       4.4488      0.00000
     64       4.6267      0.00000

 k-point    32 :      -0.2791    0.0000    0.0000
  band No.  band energies     occupation 
      1     -62.9998      2.00000
      2     -62.9979      2.00000
      3     -62.9921      2.00000
      4     -62.9902      2.00000
      5     -36.9881      2.00000
      6     -36.9856      2.00000
      7     -36.9826      2.00000
      8     -36.9773      2.00000
      9     -36.9451      2.00000
     10     -36.9047      2.00000
     11     -36.9018      2.00000
     12     -36.8833      2.00000
     13     -36.8382      2.00000
     14     -36.8284      2.00000
     15     -36.8178      2.00000
     16     -36.8079      2.00000
     17     -16.2130      2.00000
     18     -16.0661      2.00000
     19     -15.4211      2.00000
     20     -15.2694      2.00000
     21     -15.2630      2.00000
     22     -15.2100      2.00000
     23     -14.8316      2.00000
     24     -14.8082      2.00000
     25     -14.7818      2.00000
     26     -14.7090      2.00000
     27      -3.9532      2.00000
     28      -3.9083      2.00000
     29      -3.2108      2.00000
     30      -3.0657      2.00000
     31      -2.9715      2.00000
     32      -2.3522      2.00000
     33      -2.3367      2.00000
     34      -2.1656      2.00000
     35      -1.9803      2.00000
     36      -1.7516      2.00000
     37      -1.6874      2.00000
     38      -1.6622      2.00000
     39      -1.2568      2.00000
     40      -1.0417      2.00000
     41      -1.0186      2.00000
     42      -0.9815      2.00000
     43      -0.9328      2.00000
     44      -0.8775      2.00000
     45      -0.7396      2.00000
     46      -0.6422      2.00000
     47      -0.6022      2.00000
     48      -0.5081      2.00000
     49      -0.4373      2.00000
     50      -0.1771      2.00000
     51      -0.0101      2.00000
     52       0.2219      2.00000
     53       0.2602      2.00000
     54       0.3609      2.00000
     55       0.5799      2.00000
     56       0.6251      2.00000
     57       3.1091      0.00000
     58       3.3521      0.00000
     59       4.0940      0.00000
     60       4.1104      0.00000
     61       4.1402      0.00000
     62       4.4320      0.00000
     63       4.4520      0.00000
     64       4.6200      0.00000

 k-point    33 :      -0.2558    0.0000    0.0000
  band No.  band energies     occupation 
      1     -63.0003      2.00000
      2     -62.9984      2.00000
      3     -62.9919      2.00000
      4     -62.9900      2.00000
      5     -36.9887      2.00000
      6     -36.9861      2.00000
      7     -36.9829      2.00000
      8     -36.9774      2.00000
      9     -36.9453      2.00000
     10     -36.9006      2.00000
     11     -36.8995      2.00000
     12     -36.8782      2.00000
     13     -36.8375      2.00000
     14     -36.8251      2.00000
     15     -36.8160      2.00000
     16     -36.8073      2.00000
     17     -16.2743      2.00000
     18     -16.1301      2.00000
     19     -15.4221      2.00000
     20     -15.2827      2.00000
     21     -15.2753      2.00000
     22     -15.2152      2.00000
     23     -14.8368      2.00000
     24     -14.8143      2.00000
     25     -14.7736      2.00000
     26     -14.7037      2.00000
     27      -3.9241      2.00000
     28      -3.8883      2.00000
     29      -3.2382      2.00000
     30      -3.0805      2.00000
     31      -2.9737      2.00000
     32      -2.3087      2.00000
     33      -2.2352      2.00000
     34      -2.1382      2.00000
     35      -1.9443      2.00000
     36      -1.7401      2.00000
     37      -1.7034      2.00000
     38      -1.6345      2.00000
     39      -1.2271      2.00000
     40      -0.9902      2.00000
     41      -0.9849      2.00000
     42      -0.9428      2.00000
     43      -0.9174      2.00000
     44      -0.8763      2.00000
     45      -0.7620      2.00000
     46      -0.6402      2.00000
     47      -0.5764      2.00000
     48      -0.4857      2.00000
     49      -0.4063      2.00000
     50      -0.2246      2.00000
     51      -0.0428      2.00000
     52       0.2676      2.00000
     53       0.2693      2.00000
     54       0.3496      2.00000
     55       0.5918      2.00000
     56       0.6079      2.00000
     57       3.0922      0.00000
     58       3.3254      0.00000
     59       4.1488      0.00000
     60       4.1497      0.00000
     61       4.1523      0.00000
     62       4.4388      0.00000
     63       4.4618      0.00000
     64       4.5857      0.00000

 k-point    34 :      -0.2326    0.0000    0.0000
  band No.  band energies     occupation 
      1     -63.0007      2.00000
      2     -62.9989      2.00000
      3     -62.9918      2.00000
      4     -62.9899      2.00000
      5     -36.9893      2.00000
      6     -36.9866      2.00000
      7     -36.9833      2.00000
      8     -36.9776      2.00000
      9     -36.9455      2.00000
     10     -36.8996      2.00000
     11     -36.8942      2.00000
     12     -36.8729      2.00000
     13     -36.8370      2.00000
     14     -36.8217      2.00000
     15     -36.8139      2.00000
     16     -36.8069      2.00000
     17     -16.3329      2.00000
     18     -16.1912      2.00000
     19     -15.4275      2.00000
     20     -15.2942      2.00000
     21     -15.2906      2.00000
     22     -15.2203      2.00000
     23     -14.8420      2.00000
     24     -14.8204      2.00000
     25     -14.7655      2.00000
     26     -14.6988      2.00000
     27      -3.8850      2.00000
     28      -3.8574      2.00000
     29      -3.2658      2.00000
     30      -3.1005      2.00000
     31      -2.9773      2.00000
     32      -2.3288      2.00000
     33      -2.1257      2.00000
     34      -2.0423      2.00000
     35      -1.9101      2.00000
     36      -1.7287      2.00000
     37      -1.7189      2.00000
     38      -1.6119      2.00000
     39      -1.1951      2.00000
     40      -0.9810      2.00000
     41      -0.9534      2.00000
     42      -0.8997      2.00000
     43      -0.8818      2.00000
     44      -0.8683      2.00000
     45      -0.7886      2.00000
     46      -0.6373      2.00000
     47      -0.5576      2.00000
     48      -0.4573      2.00000
     49      -0.3647      2.00000
     50      -0.2745      2.00000
     51      -0.0746      2.00000
     52       0.2692      2.00000
     53       0.3107      2.00000
     54       0.3357      2.00000
     55       0.5796      2.00000
     56       0.5963      2.00000
     57       3.0699      0.00000
     58       3.2916      0.00000
     59       4.1684      0.00000
     60       4.1855      0.00000
     61       4.2165      0.00000
     62       4.4691      0.00000
     63       4.4812      0.00000
     64       4.5369      0.00000

 k-point    35 :      -0.2093    0.0000    0.0000
  band No.  band energies     occupation 
      1     -63.0012      2.00000
      2     -62.9993      2.00000
      3     -62.9917      2.00000
      4     -62.9898      2.00000
      5     -36.9898      2.00000
      6     -36.9871      2.00000
      7     -36.9836      2.00000
      8     -36.9778      2.00000
      9     -36.9458      2.00000
     10     -36.8987      2.00000
     11     -36.8891      2.00000
     12     -36.8676      2.00000
     13     -36.8365      2.00000
     14     -36.8183      2.00000
     15     -36.8116      2.00000
     16     -36.8067      2.00000
     17     -16.3881      2.00000
     18     -16.2487      2.00000
     19     -15.4369      2.00000
     20     -15.3079      2.00000
     21     -15.3035      2.00000
     22     -15.2253      2.00000
     23     -14.8473      2.00000
     24     -14.8262      2.00000
     25     -14.7578      2.00000
     26     -14.6943      2.00000
     27      -3.8369      2.00000
     28      -3.8170      2.00000
     29      -3.2928      2.00000
     30      -3.1227      2.00000
     31      -2.9824      2.00000
     32      -2.3610      2.00000
     33      -2.0117      2.00000
     34      -1.9305      2.00000
     35      -1.8793      2.00000
     36      -1.7334      2.00000
     37      -1.7184      2.00000
     38      -1.5948      2.00000
     39      -1.1613      2.00000
     40      -0.9739      2.00000
     41      -0.9303      2.00000
     42      -0.8793      2.00000
     43      -0.8541      2.00000
     44      -0.8354      2.00000
     45      -0.8179      2.00000
     46      -0.6349      2.00000
     47      -0.5502      2.00000
     48      -0.4231      2.00000
     49      -0.3207      2.00000
     50      -0.3141      2.00000
     51      -0.1043      2.00000
     52       0.2645      2.00000
     53       0.3190      2.00000
     54       0.3453      2.00000
     55       0.5422      2.00000
     56       0.5926      2.00000
     57       3.0417      0.00000
     58       3.2523      0.00000
     59       4.1852      0.00000
     60       4.2157      0.00000
     61       4.2893      0.00000
     62       4.4907      0.00000
     63       4.5104      0.00000
     64       4.5240      0.00000

 k-point    36 :      -0.1860    0.0000    0.0000
  band No.  band energies     occupation 
      1     -63.0016      2.00000
      2     -62.9997      2.00000
      3     -62.9916      2.00000
      4     -62.9897      2.00000
      5     -36.9904      2.00000
      6     -36.9875      2.00000
      7     -36.9840      2.00000
      8     -36.9780      2.00000
      9     -36.9460      2.00000
     10     -36.8981      2.00000
     11     -36.8840      2.00000
     12     -36.8623      2.00000
     13     -36.8361      2.00000
     14     -36.8148      2.00000
     15     -36.8092      2.00000
     16     -36.8067      2.00000
     17     -16.4395      2.00000
     18     -16.3019      2.00000
     19     -15.4494      2.00000
     20     -15.3261      2.00000
     21     -15.3106      2.00000
     22     -15.2301      2.00000
     23     -14.8523      2.00000
     24     -14.8318      2.00000
     25     -14.7506      2.00000
     26     -14.6903      2.00000
     27      -3.7818      2.00000
     28      -3.7683      2.00000
     29      -3.3187      2.00000
     30      -3.1452      2.00000
     31      -2.9890      2.00000
     32      -2.3918      2.00000
     33      -1.8962      2.00000
     34      -1.8538      2.00000
     35      -1.8168      2.00000
     36      -1.7463      2.00000
     37      -1.7099      2.00000
     38      -1.5828      2.00000
     39      -1.1263      2.00000
     40      -0.9632      2.00000
     41      -0.9179      2.00000
     42      -0.8564      2.00000
     43      -0.8541      2.00000
     44      -0.8281      2.00000
     45      -0.8043      2.00000
     46      -0.6342      2.00000
     47      -0.5608      2.00000
     48      -0.3871      2.00000
     49      -0.3547      2.00000
     50      -0.2580      2.00000
     51      -0.1291      2.00000
     52       0.2536      2.00000
     53       0.2991      2.00000
     54       0.3731      2.00000
     55       0.4984      2.00000
     56       0.5807      2.00000
     57       3.0087      0.00000
     58       3.2094      0.00000
     59       4.2006      0.00000
     60       4.2379      0.00000
     61       4.3488      0.00000
     62       4.4661      0.00000
     63       4.5430      0.00000
     64       4.6024      0.00000

 k-point    37 :      -0.1628    0.0000    0.0000
  band No.  band energies     occupation 
      1     -63.0020      2.00000
      2     -63.0001      2.00000
      3     -62.9915      2.00000
      4     -62.9896      2.00000
      5     -36.9908      2.00000
      6     -36.9879      2.00000
      7     -36.9843      2.00000
      8     -36.9782      2.00000
      9     -36.9463      2.00000
     10     -36.8976      2.00000
     11     -36.8792      2.00000
     12     -36.8572      2.00000
     13     -36.8359      2.00000
     14     -36.8116      2.00000
     15     -36.8070      2.00000
     16     -36.8067      2.00000
     17     -16.4862      2.00000
     18     -16.3503      2.00000
     19     -15.4636      2.00000
     20     -15.3444      2.00000
     21     -15.3159      2.00000
     22     -15.2345      2.00000
     23     -14.8571      2.00000
     24     -14.8369      2.00000
     25     -14.7442      2.00000
     26     -14.6868      2.00000
     27      -3.7214      2.00000
     28      -3.7133      2.00000
     29      -3.3430      2.00000
     30      -3.1666      2.00000
     31      -2.9974      2.00000
     32      -2.4190      2.00000
     33      -1.8354      2.00000
     34      -1.7888      2.00000
     35      -1.7498      2.00000
     36      -1.7052      2.00000
     37      -1.7039      2.00000
     38      -1.5748      2.00000
     39      -1.0907      2.00000
     40      -0.9496      2.00000
     41      -0.9130      2.00000
     42      -0.8841      2.00000
     43      -0.8322      2.00000
     44      -0.8029      2.00000
     45      -0.7866      2.00000
     46      -0.6362      2.00000
     47      -0.5923      2.00000
     48      -0.3707      2.00000
     49      -0.3589      2.00000
     50      -0.2003      2.00000
     51      -0.1427      2.00000
     52       0.2370      2.00000
     53       0.2751      2.00000
     54       0.3942      2.00000
     55       0.4518      2.00000
     56       0.5612      2.00000
     57       2.9726      0.00000
     58       3.1652      0.00000
     59       4.2132      0.00000
     60       4.2535      0.00000
     61       4.3526      0.00000
     62       4.4985      0.00000
     63       4.5664      0.00000
     64       4.6997      0.00000

 k-point    38 :      -0.1395    0.0000    0.0000
  band No.  band energies     occupation 
      1     -63.0023      2.00000
      2     -63.0004      2.00000
      3     -62.9914      2.00000
      4     -62.9895      2.00000
      5     -36.9913      2.00000
      6     -36.9882      2.00000
      7     -36.9846      2.00000
      8     -36.9784      2.00000
      9     -36.9465      2.00000
     10     -36.8972      2.00000
     11     -36.8748      2.00000
     12     -36.8522      2.00000
     13     -36.8358      2.00000
     14     -36.8085      2.00000
     15     -36.8074      2.00000
     16     -36.8044      2.00000
     17     -16.5278      2.00000
     18     -16.3933      2.00000
     19     -15.4783      2.00000
     20     -15.3618      2.00000
     21     -15.3198      2.00000
     22     -15.2386      2.00000
     23     -14.8615      2.00000
     24     -14.8415      2.00000
     25     -14.7387      2.00000
     26     -14.6838      2.00000
     27      -3.6581      2.00000
     28      -3.6542      2.00000
     29      -3.3650      2.00000
     30      -3.1863      2.00000
     31      -3.0078      2.00000
     32      -2.4421      2.00000
     33      -1.8260      2.00000
     34      -1.7751      2.00000
     35      -1.7005      2.00000
     36      -1.6602      2.00000
     37      -1.5973      2.00000
     38      -1.5694      2.00000
     39      -1.0564      2.00000
     40      -0.9336      2.00000
     41      -0.9129      2.00000
     42      -0.9117      2.00000
     43      -0.8091      2.00000
     44      -0.7794      2.00000
     45      -0.7730      2.00000
     46      -0.6412      2.00000
     47      -0.6363      2.00000
     48      -0.3731      2.00000
     49      -0.3507      2.00000
     50      -0.1448      2.00000
     51      -0.1370      2.00000
     52       0.2156      2.00000
     53       0.2452      2.00000
     54       0.4072      2.00000
     55       0.4092      2.00000
     56       0.5357      2.00000
     57       2.9359      0.00000
     58       3.1221      0.00000
     59       4.2231      0.00000
     60       4.2653      0.00000
     61       4.3257      0.00000
     62       4.5531      0.00000
     63       4.5710      0.00000
     64       4.8036      0.00000

 k-point    39 :      -0.1163    0.0000    0.0000
  band No.  band energies     occupation 
      1     -63.0026      2.00000
      2     -63.0007      2.00000
      3     -62.9914      2.00000
      4     -62.9895      2.00000
      5     -36.9916      2.00000
      6     -36.9885      2.00000
      7     -36.9848      2.00000
      8     -36.9786      2.00000
      9     -36.9467      2.00000
     10     -36.8970      2.00000
     11     -36.8707      2.00000
     12     -36.8476      2.00000
     13     -36.8359      2.00000
     14     -36.8081      2.00000
     15     -36.8058      2.00000
     16     -36.8022      2.00000
     17     -16.5639      2.00000
     18     -16.4305      2.00000
     19     -15.4924      2.00000
     20     -15.3778      2.00000
     21     -15.3227      2.00000
     22     -15.2421      2.00000
     23     -14.8653      2.00000
     24     -14.8456      2.00000
     25     -14.7340      2.00000
     26     -14.6813      2.00000
     27      -3.5950      2.00000
     28      -3.5931      2.00000
     29      -3.3844      2.00000
     30      -3.2035      2.00000
     31      -3.0202      2.00000
     32      -2.4611      2.00000
     33      -1.8258      2.00000
     34      -1.7834      2.00000
     35      -1.6996      2.00000
     36      -1.5655      2.00000
     37      -1.5513      2.00000
     38      -1.4951      2.00000
     39      -1.0290      2.00000
     40      -0.9290      2.00000
     41      -0.9157      2.00000
     42      -0.9157      2.00000
     43      -0.7931      2.00000
     44      -0.7800      2.00000
     45      -0.7420      2.00000
     46      -0.6781      2.00000
     47      -0.6494      2.00000
     48      -0.3691      2.00000
     49      -0.3654      2.00000
     50      -0.1124      2.00000
     51      -0.0941      2.00000
     52       0.1912      2.00000
     53       0.2083      2.00000
     54       0.3692      2.00000
     55       0.4191      2.00000
     56       0.5063      2.00000
     57       2.9008      0.00000
     58       3.0821      0.00000
     59       4.2305      0.00000
     60       4.2756      0.00000
     61       4.2973      0.00000
     62       4.5595      0.00000
     63       4.5962      0.00000
     64       4.8583      0.00000

 k-point    40 :      -0.0930    0.0000    0.0000
  band No.  band energies     occupation 
      1     -63.0028      2.00000
      2     -63.0010      2.00000
      3     -62.9913      2.00000
      4     -62.9895      2.00000
      5     -36.9920      2.00000
      6     -36.9888      2.00000
      7     -36.9851      2.00000
      8     -36.9787      2.00000
      9     -36.9469      2.00000
     10     -36.8968      2.00000
     11     -36.8671      2.00000
     12     -36.8435      2.00000
     13     -36.8361      2.00000
     14     -36.8089      2.00000
     15     -36.8034      2.00000
     16     -36.8003      2.00000
     17     -16.5939      2.00000
     18     -16.4615      2.00000
     19     -15.5051      2.00000
     20     -15.3917      2.00000
     21     -15.3248      2.00000
     22     -15.2451      2.00000
     23     -14.8686      2.00000
     24     -14.8490      2.00000
     25     -14.7302      2.00000
     26     -14.6793      2.00000
     27      -3.5353      2.00000
     28      -3.5330      2.00000
     29      -3.4007      2.00000
     30      -3.2180      2.00000
     31      -3.0348      2.00000
     32      -2.4763      2.00000
     33      -1.8336      2.00000
     34      -1.7911      2.00000
     35      -1.7009      2.00000
     36      -1.5621      2.00000
     37      -1.4487      2.00000
     38      -1.4009      2.00000
     39      -1.0200      2.00000
     40      -0.9244      2.00000
     41      -0.9204      2.00000
     42      -0.8967      2.00000
     43      -0.7978      2.00000
     44      -0.7863      2.00000
     45      -0.7123      2.00000
     46      -0.6983      2.00000
     47      -0.6604      2.00000
     48      -0.3946      2.00000
     49      -0.3632      2.00000
     50      -0.0791      2.00000
     51      -0.0505      2.00000
     52       0.1659      2.00000
     53       0.1660      2.00000
     54       0.3403      2.00000
     55       0.4248      2.00000
     56       0.4757      2.00000
     57       2.8695      0.00000
     58       3.0471      0.00000
     59       4.2360      0.00000
     60       4.2729      0.00000
     61       4.2855      0.00000
     62       4.5397      0.00000
     63       4.6249      0.00000
     64       4.8602      0.00000

 k-point    41 :      -0.0698    0.0000    0.0000
  band No.  band energies     occupation 
      1     -63.0030      2.00000
      2     -63.0012      2.00000
      3     -62.9913      2.00000
      4     -62.9894      2.00000
      5     -36.9922      2.00000
      6     -36.9890      2.00000
      7     -36.9852      2.00000
      8     -36.9789      2.00000
      9     -36.9471      2.00000
     10     -36.8967      2.00000
     11     -36.8642      2.00000
     12     -36.8399      2.00000
     13     -36.8364      2.00000
     14     -36.8099      2.00000
     15     -36.8015      2.00000
     16     -36.7987      2.00000
     17     -16.6177      2.00000
     18     -16.4859      2.00000
     19     -15.5156      2.00000
     20     -15.4031      2.00000
     21     -15.3264      2.00000
     22     -15.2475      2.00000
     23     -14.8712      2.00000
     24     -14.8518      2.00000
     25     -14.7273      2.00000
     26     -14.6778      2.00000
     27      -3.4830      2.00000
     28      -3.4776      2.00000
     29      -3.4138      2.00000
     30      -3.2296      2.00000
     31      -3.0508      2.00000
     32      -2.4879      2.00000
     33      -1.8465      2.00000
     34      -1.7973      2.00000
     35      -1.7037      2.00000
     36      -1.5592      2.00000
     37      -1.3570      2.00000
     38      -1.3178      2.00000
     39      -1.0272      2.00000
     40      -0.9265      2.00000
     41      -0.9015      2.00000
     42      -0.8777      2.00000
     43      -0.8234      2.00000
     44      -0.7966      2.00000
     45      -0.6938      2.00000
     46      -0.6861      2.00000
     47      -0.6734      2.00000
     48      -0.4296      2.00000
     49      -0.3576      2.00000
     50      -0.0464      2.00000
     51      -0.0153      2.00000
     52       0.1229      2.00000
     53       0.1421      2.00000
     54       0.3198      2.00000
     55       0.4274      2.00000
     56       0.4469      2.00000
     57       2.8436      0.00000
     58       3.0183      0.00000
     59       4.2399      0.00000
     60       4.2536      0.00000
     61       4.2952      0.00000
     62       4.5180      0.00000
     63       4.6431      0.00000
     64       4.8554      0.00000

 k-point    42 :      -0.0465    0.0000    0.0000
  band No.  band energies     occupation 
      1     -63.0032      2.00000
      2     -63.0013      2.00000
      3     -62.9913      2.00000
      4     -62.9894      2.00000
      5     -36.9924      2.00000
      6     -36.9891      2.00000
      7     -36.9854      2.00000
      8     -36.9789      2.00000
      9     -36.9472      2.00000
     10     -36.8966      2.00000
     11     -36.8619      2.00000
     12     -36.8371      2.00000
     13     -36.8367      2.00000
     14     -36.8108      2.00000
     15     -36.8001      2.00000
     16     -36.7976      2.00000
     17     -16.6348      2.00000
     18     -16.5036      2.00000
     19     -15.5235      2.00000
     20     -15.4115      2.00000
     21     -15.3275      2.00000
     22     -15.2493      2.00000
     23     -14.8732      2.00000
     24     -14.8537      2.00000
     25     -14.7252      2.00000
     26     -14.6767      2.00000
     27      -3.4417      2.00000
     28      -3.4311      2.00000
     29      -3.4232      2.00000
     30      -3.2379      2.00000
     31      -3.0666      2.00000
     32      -2.4961      2.00000
     33      -1.8602      2.00000
     34      -1.8018      2.00000
     35      -1.7069      2.00000
     36      -1.5568      2.00000
     37      -1.2819      2.00000
     38      -1.2501      2.00000
     39      -1.0374      2.00000
     40      -0.9333      2.00000
     41      -0.8764      2.00000
     42      -0.8602      2.00000
     43      -0.8505      2.00000
     44      -0.8089      2.00000
     45      -0.6864      2.00000
     46      -0.6823      2.00000
     47      -0.6653      2.00000
     48      -0.4631      2.00000
     49      -0.3531      2.00000
     50      -0.0196      2.00000
     51       0.0105      2.00000
     52       0.0856      2.00000
     53       0.1226      2.00000
     54       0.3062      2.00000
     55       0.4230      2.00000
     56       0.4282      2.00000
     57       2.8243      0.00000
     58       2.9970      0.00000
     59       4.2398      0.00000
     60       4.2424      0.00000
     61       4.3042      0.00000
     62       4.4987      0.00000
     63       4.6543      0.00000
     64       4.8508      0.00000

 k-point    43 :      -0.0233    0.0000    0.0000
  band No.  band energies     occupation 
      1     -63.0033      2.00000
      2     -63.0014      2.00000
      3     -62.9913      2.00000
      4     -62.9894      2.00000
      5     -36.9925      2.00000
      6     -36.9892      2.00000
      7     -36.9854      2.00000
      8     -36.9790      2.00000
      9     -36.9473      2.00000
     10     -36.8966      2.00000
     11     -36.8605      2.00000
     12     -36.8369      2.00000
     13     -36.8352      2.00000
     14     -36.8115      2.00000
     15     -36.7993      2.00000
     16     -36.7969      2.00000
     17     -16.6452      2.00000
     18     -16.5143      2.00000
     19     -15.5283      2.00000
     20     -15.4166      2.00000
     21     -15.3282      2.00000
     22     -15.2503      2.00000
     23     -14.8744      2.00000
     24     -14.8550      2.00000
     25     -14.7240      2.00000
     26     -14.6761      2.00000
     27      -3.4290      2.00000
     28      -3.4151      2.00000
     29      -3.3992      2.00000
     30      -3.2430      2.00000
     31      -3.0791      2.00000
     32      -2.5009      2.00000
     33      -1.8706      2.00000
     34      -1.8045      2.00000
     35      -1.7095      2.00000
     36      -1.5552      2.00000
     37      -1.2312      2.00000
     38      -1.2043      2.00000
     39      -1.0446      2.00000
     40      -0.9395      2.00000
     41      -0.8690      2.00000
     42      -0.8584      2.00000
     43      -0.8461      2.00000
     44      -0.8207      2.00000
     45      -0.6965      2.00000
     46      -0.6734      2.00000
     47      -0.6519      2.00000
     48      -0.4880      2.00000
     49      -0.3504      2.00000
     50      -0.0021      2.00000
     51       0.0264      2.00000
     52       0.0602      2.00000
     53       0.1096      2.00000
     54       0.2985      2.00000
     55       0.4070      2.00000
     56       0.4282      2.00000
     57       2.8124      0.00000
     58       2.9840      0.00000
     59       4.2316      0.00000
     60       4.2439      0.00000
     61       4.3108      0.00000
     62       4.4853      0.00000
     63       4.6603      0.00000
     64       4.8478      0.00000

 k-point    44 :       0.0000    0.5000    0.0000
  band No.  band energies     occupation 
      1     -63.0032      2.00000
      2     -63.0013      2.00000
      3     -62.9912      2.00000
      4     -62.9893      2.00000
      5     -36.9977      2.00000
      6     -36.9945      2.00000
      7     -36.9932      2.00000
      8     -36.9868      2.00000
      9     -36.9467      2.00000
     10     -36.8958      2.00000
     11     -36.8600      2.00000
     12     -36.8366      2.00000
     13     -36.8342      2.00000
     14     -36.8117      2.00000
     15     -36.7989      2.00000
     16     -36.7965      2.00000
     17     -16.5105      2.00000
     18     -16.3987      2.00000
     19     -15.4017      2.00000
     20     -15.3638      2.00000
     21     -15.3176      2.00000
     22     -15.2142      2.00000
     23     -14.8563      2.00000
     24     -14.8198      2.00000
     25     -14.6277      2.00000
     26     -14.5859      2.00000
     27      -3.4793      2.00000
     28      -3.4616      2.00000
     29      -3.4501      2.00000
     30      -3.4412      2.00000
     31      -3.3155      2.00000
     32      -3.2960      2.00000
     33      -2.8266      2.00000
     34      -2.8234      2.00000
     35      -2.5720      2.00000
     36      -2.5699      2.00000
     37      -2.2606      2.00000
     38      -1.7119      2.00000
     39      -1.6526      2.00000
     40      -1.3294      2.00000
     41      -1.2563      2.00000
     42      -0.9464      2.00000
     43      -0.7960      2.00000
     44      -0.6978      2.00000
     45      -0.4383      2.00000
     46      -0.3492      2.00000
     47      -0.1833      2.00000
     48      -0.1520      2.00000
     49       0.0616      2.00000
     50       0.0985      2.00000
     51       0.2249      2.00000
     52       0.2646      2.00000
     53       0.3902      2.00000
     54       0.7035      2.00000
     55       0.8770      2.00000
     56       1.0358      2.00000
     57       2.9968      0.00000
     58       3.1748      0.00000
     59       4.3703      0.00000
     60       4.4131      0.00000
     61       4.4747      0.00000
     62       4.6584      0.00000
     63       4.7190      0.00000
     64       5.0674      0.00000

 k-point    45 :       0.0233    0.5000    0.0000
  band No.  band energies     occupation 
      1     -63.0031      2.00000
      2     -63.0012      2.00000
      3     -62.9912      2.00000
      4     -62.9893      2.00000
      5     -36.9977      2.00000
      6     -36.9944      2.00000
      7     -36.9932      2.00000
      8     -36.9868      2.00000
      9     -36.9467      2.00000
     10     -36.8958      2.00000
     11     -36.8605      2.00000
     12     -36.8365      2.00000
     13     -36.8348      2.00000
     14     -36.8114      2.00000
     15     -36.7992      2.00000
     16     -36.7967      2.00000
     17     -16.5071      2.00000
     18     -16.3952      2.00000
     19     -15.4001      2.00000
     20     -15.3624      2.00000
     21     -15.3175      2.00000
     22     -15.2139      2.00000
     23     -14.8557      2.00000
     24     -14.8193      2.00000
     25     -14.6277      2.00000
     26     -14.5859      2.00000
     27      -3.4902      2.00000
     28      -3.4899      2.00000
     29      -3.4483      2.00000
     30      -3.4183      2.00000
     31      -3.3138      2.00000
     32      -3.2914      2.00000
     33      -2.8258      2.00000
     34      -2.8233      2.00000
     35      -2.5708      2.00000
     36      -2.5696      2.00000
     37      -2.2600      2.00000
     38      -1.7274      2.00000
     39      -1.6633      2.00000
     40      -1.3264      2.00000
     41      -1.2589      2.00000
     42      -0.9615      2.00000
     43      -0.7958      2.00000
     44      -0.6854      2.00000
     45      -0.4310      2.00000
     46      -0.3536      2.00000
     47      -0.1809      2.00000
     48      -0.1589      2.00000
     49       0.0534      2.00000
     50       0.0883      2.00000
     51       0.2361      2.00000
     52       0.2775      2.00000
     53       0.3948      2.00000
     54       0.7072      2.00000
     55       0.8778      2.00000
     56       1.0357      2.00000
     57       2.9985      0.00000
     58       3.1753      0.00000
     59       4.3708      0.00000
     60       4.4101      0.00000
     61       4.4748      0.00000
     62       4.6609      0.00000
     63       4.7189      0.00000
     64       5.0625      0.00000

 k-point    46 :       0.0465    0.5000    0.0000
  band No.  band energies     occupation 
      1     -63.0030      2.00000
      2     -63.0012      2.00000
      3     -62.9912      2.00000
      4     -62.9893      2.00000
      5     -36.9976      2.00000
      6     -36.9944      2.00000
      7     -36.9931      2.00000
      8     -36.9867      2.00000
      9     -36.9466      2.00000
     10     -36.8959      2.00000
     11     -36.8619      2.00000
     12     -36.8367      2.00000
     13     -36.8363      2.00000
     14     -36.8107      2.00000
     15     -36.8000      2.00000
     16     -36.7975      2.00000
     17     -16.4969      2.00000
     18     -16.3849      2.00000
     19     -15.3952      2.00000
     20     -15.3582      2.00000
     21     -15.3172      2.00000
     22     -15.2129      2.00000
     23     -14.8540      2.00000
     24     -14.8176      2.00000
     25     -14.6277      2.00000
     26     -14.5860      2.00000
     27      -3.5313      2.00000
     28      -3.5196      2.00000
     29      -3.4427      2.00000
     30      -3.3927      2.00000
     31      -3.3087      2.00000
     32      -3.2803      2.00000
     33      -2.8235      2.00000
     34      -2.8228      2.00000
     35      -2.5686      2.00000
     36      -2.5674      2.00000
     37      -2.2582      2.00000
     38      -1.7705      2.00000
     39      -1.6944      2.00000
     40      -1.3203      2.00000
     41      -1.2668      2.00000
     42      -1.0005      2.00000
     43      -0.7943      2.00000
     44      -0.6554      2.00000
     45      -0.4126      2.00000
     46      -0.3628      2.00000
     47      -0.1763      2.00000
     48      -0.1758      2.00000
     49       0.0303      2.00000
     50       0.0579      2.00000
     51       0.2683      2.00000
     52       0.3130      2.00000
     53       0.4083      2.00000
     54       0.7176      2.00000
     55       0.8805      2.00000
     56       1.0356      2.00000
     57       3.0037      0.00000
     58       3.1770      0.00000
     59       4.3724      0.00000
     60       4.4013      0.00000
     61       4.4752      0.00000
     62       4.6684      0.00000
     63       4.7187      0.00000
     64       5.0481      0.00000

 k-point    47 :       0.0698    0.5000    0.0000
  band No.  band energies     occupation 
      1     -63.0029      2.00000
      2     -63.0010      2.00000
      3     -62.9912      2.00000
      4     -62.9894      2.00000
      5     -36.9974      2.00000
      6     -36.9942      2.00000
      7     -36.9930      2.00000
      8     -36.9866      2.00000
      9     -36.9465      2.00000
     10     -36.8959      2.00000
     11     -36.8641      2.00000
     12     -36.8395      2.00000
     13     -36.8360      2.00000
     14     -36.8098      2.00000
     15     -36.8014      2.00000
     16     -36.7986      2.00000
     17     -16.4800      2.00000
     18     -16.3677      2.00000
     19     -15.3872      2.00000
     20     -15.3513      2.00000
     21     -15.3168      2.00000
     22     -15.2114      2.00000
     23     -14.8511      2.00000
     24     -14.8147      2.00000
     25     -14.6277      2.00000
     26     -14.5862      2.00000
     27      -3.5775      2.00000
     28      -3.5617      2.00000
     29      -3.4336      2.00000
     30      -3.3709      2.00000
     31      -3.3002      2.00000
     32      -3.2672      2.00000
     33      -2.8220      2.00000
     34      -2.8195      2.00000
     35      -2.5670      2.00000
     36      -2.5617      2.00000
     37      -2.2552      2.00000
     38      -1.8344      2.00000
     39      -1.7430      2.00000
     40      -1.3167      2.00000
     41      -1.2802      2.00000
     42      -1.0535      2.00000
     43      -0.7893      2.00000
     44      -0.6208      2.00000
     45      -0.4089      2.00000
     46      -0.3500      2.00000
     47      -0.1963      2.00000
     48      -0.1745      2.00000
     49      -0.0030      2.00000
     50       0.0083      2.00000
     51       0.3178      2.00000
     52       0.3649      2.00000
     53       0.4299      2.00000
     54       0.7320      2.00000
     55       0.8848      2.00000
     56       1.0353      2.00000
     57       3.0123      0.00000
     58       3.1804      0.00000
     59       4.3748      0.00000
     60       4.3875      0.00000
     61       4.4760      0.00000
     62       4.6798      0.00000
     63       4.7181      0.00000
     64       5.0255      0.00000

 k-point    48 :       0.0930    0.5000    0.0000
  band No.  band energies     occupation 
      1     -63.0027      2.00000
      2     -63.0008      2.00000
      3     -62.9913      2.00000
      4     -62.9894      2.00000
      5     -36.9972      2.00000
      6     -36.9940      2.00000
      7     -36.9928      2.00000
      8     -36.9864      2.00000
      9     -36.9463      2.00000
     10     -36.8960      2.00000
     11     -36.8670      2.00000
     12     -36.8431      2.00000
     13     -36.8358      2.00000
     14     -36.8089      2.00000
     15     -36.8033      2.00000
     16     -36.8002      2.00000
     17     -16.4567      2.00000
     18     -16.3440      2.00000
     19     -15.3766      2.00000
     20     -15.3421      2.00000
     21     -15.3162      2.00000
     22     -15.2092      2.00000
     23     -14.8471      2.00000
     24     -14.8108      2.00000
     25     -14.6278      2.00000
     26     -14.5864      2.00000
     27      -3.6270      2.00000
     28      -3.6118      2.00000
     29      -3.4211      2.00000
     30      -3.3529      2.00000
     31      -3.2885      2.00000
     32      -3.2544      2.00000
     33      -2.8209      2.00000
     34      -2.8140      2.00000
     35      -2.5650      2.00000
     36      -2.5540      2.00000
     37      -2.2510      2.00000
     38      -1.9130      2.00000
     39      -1.8056      2.00000
     40      -1.3197      2.00000
     41      -1.2996      2.00000
     42      -1.1140      2.00000
     43      -0.7790      2.00000
     44      -0.5944      2.00000
     45      -0.4309      2.00000
     46      -0.3037      2.00000
     47      -0.2087      2.00000
     48      -0.1913      2.00000
     49      -0.0599      2.00000
     50      -0.0349      2.00000
     51       0.3799      2.00000
     52       0.4269      2.00000
     53       0.4591      2.00000
     54       0.7470      2.00000
     55       0.8909      2.00000
     56       1.0350      2.00000
     57       3.0241      0.00000
     58       3.1860      0.00000
     59       4.3696      0.00000
     60       4.3772      0.00000
     61       4.4772      0.00000
     62       4.6941      0.00000
     63       4.7167      0.00000
     64       4.9965      0.00000

 k-point    49 :       0.1163    0.5000    0.0000
  band No.  band energies     occupation 
      1     -63.0025      2.00000
      2     -63.0006      2.00000
      3     -62.9913      2.00000
      4     -62.9894      2.00000
      5     -36.9969      2.00000
      6     -36.9938      2.00000
      7     -36.9925      2.00000
      8     -36.9862      2.00000
      9     -36.9461      2.00000
     10     -36.8962      2.00000
     11     -36.8705      2.00000
     12     -36.8472      2.00000
     13     -36.8356      2.00000
     14     -36.8081      2.00000
     15     -36.8057      2.00000
     16     -36.8021      2.00000
     17     -16.4272      2.00000
     18     -16.3139      2.00000
     19     -15.3639      2.00000
     20     -15.3309      2.00000
     21     -15.3151      2.00000
     22     -15.2066      2.00000
     23     -14.8421      2.00000
     24     -14.8059      2.00000
     25     -14.6280      2.00000
     26     -14.5867      2.00000
     27      -3.6783      2.00000
     28      -3.6664      2.00000
     29      -3.4055      2.00000
     30      -3.3379      2.00000
     31      -3.2740      2.00000
     32      -3.2431      2.00000
     33      -2.8195      2.00000
     34      -2.8068      2.00000
     35      -2.5628      2.00000
     36      -2.5446      2.00000
     37      -2.2457      2.00000
     38      -2.0011      2.00000
     39      -1.8777      2.00000
     40      -1.3301      2.00000
     41      -1.3250      2.00000
     42      -1.1784      2.00000
     43      -0.7633      2.00000
     44      -0.5884      2.00000
     45      -0.4590      2.00000
     46      -0.2436      2.00000
     47      -0.2424      2.00000
     48      -0.2027      2.00000
     49      -0.1452      2.00000
     50      -0.0515      2.00000
     51       0.4502      2.00000
     52       0.4941      2.00000
     53       0.4947      2.00000
     54       0.7589      2.00000
     55       0.8987      2.00000
     56       1.0348      2.00000
     57       3.0388      0.00000
     58       3.1947      0.00000
     59       4.3486      0.00000
     60       4.3784      0.00000
     61       4.4789      0.00000
     62       4.7101      0.00000
     63       4.7140      0.00000
     64       4.9641      0.00000

 k-point    50 :       0.1395    0.5000    0.0000
  band No.  band energies     occupation 
      1     -63.0022      2.00000
      2     -63.0003      2.00000
      3     -62.9914      2.00000
      4     -62.9895      2.00000
      5     -36.9965      2.00000
      6     -36.9935      2.00000
      7     -36.9922      2.00000
      8     -36.9860      2.00000
      9     -36.9459      2.00000
     10     -36.8965      2.00000
     11     -36.8746      2.00000
     12     -36.8518      2.00000
     13     -36.8356      2.00000
     14     -36.8084      2.00000
     15     -36.8074      2.00000
     16     -36.8043      2.00000
     17     -16.3919      2.00000
     18     -16.2779      2.00000
     19     -15.3503      2.00000
     20     -15.3182      2.00000
     21     -15.3130      2.00000
     22     -15.2034      2.00000
     23     -14.8361      2.00000
     24     -14.8000      2.00000
     25     -14.6283      2.00000
     26     -14.5873      2.00000
     27      -3.7292      2.00000
     28      -3.7225      2.00000
     29      -3.3871      2.00000
     30      -3.3254      2.00000
     31      -3.2570      2.00000
     32      -3.2331      2.00000
     33      -2.8179      2.00000
     34      -2.7981      2.00000
     35      -2.5609      2.00000
     36      -2.5343      2.00000
     37      -2.2392      2.00000
     38      -2.0952      2.00000
     39      -1.9549      2.00000
     40      -1.3564      2.00000
     41      -1.3469      2.00000
     42      -1.2441      2.00000
     43      -0.7444      2.00000
     44      -0.6091      2.00000
     45      -0.4874      2.00000
     46      -0.3272      2.00000
     47      -0.2454      2.00000
     48      -0.1765      2.00000
     49      -0.1741      2.00000
     50      -0.0553      2.00000
     51       0.5244      2.00000
     52       0.5356      2.00000
     53       0.5627      2.00000
     54       0.7650      2.00000
     55       0.9081      2.00000
     56       1.0347      2.00000
     57       3.0559      0.00000
     58       3.2072      0.00000
     59       4.3251      0.00000
     60       4.3766      0.00000
     61       4.4812      0.00000
     62       4.7092      0.00000
     63       4.7263      0.00000
     64       4.9317      0.00000

 k-point    51 :       0.1628    0.5000    0.0000
  band No.  band energies     occupation 
      1     -63.0018      2.00000
      2     -63.0000      2.00000
      3     -62.9914      2.00000
      4     -62.9895      2.00000
      5     -36.9961      2.00000
      6     -36.9932      2.00000
      7     -36.9918      2.00000
      8     -36.9858      2.00000
      9     -36.9456      2.00000
     10     -36.8968      2.00000
     11     -36.8790      2.00000
     12     -36.8567      2.00000
     13     -36.8357      2.00000
     14     -36.8114      2.00000
     15     -36.8069      2.00000
     16     -36.8066      2.00000
     17     -16.3511      2.00000
     18     -16.2363      2.00000
     19     -15.3384      2.00000
     20     -15.3080      2.00000
     21     -15.3047      2.00000
     22     -15.1998      2.00000
     23     -14.8292      2.00000
     24     -14.7931      2.00000
     25     -14.6287      2.00000
     26     -14.5880      2.00000
     27      -3.7779      2.00000
     28      -3.7777      2.00000
     29      -3.3666      2.00000
     30      -3.3146      2.00000
     31      -3.2380      2.00000
     32      -3.2243      2.00000
     33      -2.8158      2.00000
     34      -2.7879      2.00000
     35      -2.5593      2.00000
     36      -2.5249      2.00000
     37      -2.2317      2.00000
     38      -2.1920      2.00000
     39      -2.0322      2.00000
     40      -1.3933      2.00000
     41      -1.3681      2.00000
     42      -1.3090      2.00000
     43      -0.7273      2.00000
     44      -0.6534      2.00000
     45      -0.5138      2.00000
     46      -0.4364      2.00000
     47      -0.3553      2.00000
     48      -0.1282      2.00000
     49      -0.1074      2.00000
     50      -0.0554      2.00000
     51       0.5800      2.00000
     52       0.5989      2.00000
     53       0.6295      2.00000
     54       0.7633      2.00000
     55       0.9193      2.00000
     56       1.0350      2.00000
     57       3.0747      0.00000
     58       3.2237      0.00000
     59       4.3001      0.00000
     60       4.3690      0.00000
     61       4.4845      0.00000
     62       4.7023      0.00000
     63       4.7401      0.00000
     64       4.9042      0.00000

 k-point    52 :       0.1860    0.5000    0.0000
  band No.  band energies     occupation 
      1     -63.0015      2.00000
      2     -62.9996      2.00000
      3     -62.9915      2.00000
      4     -62.9896      2.00000
      5     -36.9957      2.00000
      6     -36.9929      2.00000
      7     -36.9915      2.00000
      8     -36.9855      2.00000
      9     -36.9454      2.00000
     10     -36.8973      2.00000
     11     -36.8838      2.00000
     12     -36.8619      2.00000
     13     -36.8359      2.00000
     14     -36.8147      2.00000
     15     -36.8091      2.00000
     16     -36.8067      2.00000
     17     -16.3055      2.00000
     18     -16.1897      2.00000
     19     -15.3317      2.00000
     20     -15.2970      2.00000
     21     -15.2908      2.00000
     22     -15.1958      2.00000
     23     -14.8214      2.00000
     24     -14.7855      2.00000
     25     -14.6294      2.00000
     26     -14.5889      2.00000
     27      -3.8297      2.00000
     28      -3.8223      2.00000
     29      -3.3445      2.00000
     30      -3.3052      2.00000
     31      -3.2180      2.00000
     32      -3.2163      2.00000
     33      -2.8135      2.00000
     34      -2.7760      2.00000
     35      -2.5586      2.00000
     36      -2.5197      2.00000
     37      -2.2886      2.00000
     38      -2.2231      2.00000
     39      -2.1030      2.00000
     40      -1.4349      2.00000
     41      -1.3919      2.00000
     42      -1.3714      2.00000
     43      -0.7256      2.00000
     44      -0.7141      2.00000
     45      -0.5645      2.00000
     46      -0.5372      2.00000
     47      -0.4607      2.00000
     48      -0.0740      2.00000
     49      -0.0563      2.00000
     50      -0.0410      2.00000
     51       0.6261      2.00000
     52       0.6707      2.00000
     53       0.6919      2.00000
     54       0.7541      2.00000
     55       0.9323      2.00000
     56       1.0359      2.00000
     57       3.0944      0.00000
     58       3.2442      0.00000
     59       4.2746      0.00000
     60       4.3528      0.00000
     61       4.4889      0.00000
     62       4.6945      0.00000
     63       4.7476      0.00000
     64       4.8876      0.00000

 k-point    53 :       0.2093    0.5000    0.0000
  band No.  band energies     occupation 
      1     -63.0011      2.00000
      2     -62.9992      2.00000
      3     -62.9916      2.00000
      4     -62.9897      2.00000
      5     -36.9952      2.00000
      6     -36.9925      2.00000
      7     -36.9911      2.00000
      8     -36.9852      2.00000
      9     -36.9452      2.00000
     10     -36.8980      2.00000
     11     -36.8888      2.00000
     12     -36.8671      2.00000
     13     -36.8363      2.00000
     14     -36.8181      2.00000
     15     -36.8115      2.00000
     16     -36.8067      2.00000
     17     -16.2555      2.00000
     18     -16.1385      2.00000
     19     -15.3303      2.00000
     20     -15.2809      2.00000
     21     -15.2775      2.00000
     22     -15.1915      2.00000
     23     -14.8129      2.00000
     24     -14.7771      2.00000
     25     -14.6304      2.00000
     26     -14.5902      2.00000
     27      -3.8762      2.00000
     28      -3.8605      2.00000
     29      -3.3214      2.00000
     30      -3.2967      2.00000
     31      -3.2084      2.00000
     32      -3.1983      2.00000
     33      -2.8107      2.00000
     34      -2.7625      2.00000
     35      -2.5589      2.00000
     36      -2.5252      2.00000
     37      -2.3821      2.00000
     38      -2.2135      2.00000
     39      -2.1582      2.00000
     40      -1.4800      2.00000
     41      -1.4304      2.00000
     42      -1.4170      2.00000
     43      -0.7856      2.00000
     44      -0.7743      2.00000
     45      -0.7082      2.00000
     46      -0.5576      2.00000
     47      -0.5255      2.00000
     48      -0.0595      2.00000
     49      -0.0187      2.00000
     50       0.0170      2.00000
     51       0.6721      2.00000
     52       0.7372      2.00000
     53       0.7395      2.00000
     54       0.7477      2.00000
     55       0.9475      2.00000
     56       1.0380      2.00000
     57       3.1143      0.00000
     58       3.2681      0.00000
     59       4.2497      0.00000
     60       4.3269      0.00000
     61       4.4946      0.00000
     62       4.6887      0.00000
     63       4.7452      0.00000
     64       4.8543      0.00000

 k-point    54 :       0.2326    0.5000    0.0000
  band No.  band energies     occupation 
      1     -63.0006      2.00000
      2     -62.9987      2.00000
      3     -62.9917      2.00000
      4     -62.9898      2.00000
      5     -36.9947      2.00000
      6     -36.9921      2.00000
      7     -36.9906      2.00000
      8     -36.9849      2.00000
      9     -36.9449      2.00000
     10     -36.8989      2.00000
     11     -36.8939      2.00000
     12     -36.8725      2.00000
     13     -36.8368      2.00000
     14     -36.8216      2.00000
     15     -36.8138      2.00000
     16     -36.8069      2.00000
     17     -16.2017      2.00000
     18     -16.0835      2.00000
     19     -15.3318      2.00000
     20     -15.2653      2.00000
     21     -15.2629      2.00000
     22     -15.1870      2.00000
     23     -14.8037      2.00000
     24     -14.7680      2.00000
     25     -14.6317      2.00000
     26     -14.5918      2.00000
     27      -3.9157      2.00000
     28      -3.8908      2.00000
     29      -3.2982      2.00000
     30      -3.2887      2.00000
     31      -3.2002      2.00000
     32      -3.1810      2.00000
     33      -2.8074      2.00000
     34      -2.7475      2.00000
     35      -2.5605      2.00000
     36      -2.5494      2.00000
     37      -2.4691      2.00000
     38      -2.2042      2.00000
     39      -2.1869      2.00000
     40      -1.5274      2.00000
     41      -1.4853      2.00000
     42      -1.4433      2.00000
     43      -0.8887      2.00000
     44      -0.8649      2.00000
     45      -0.8641      2.00000
     46      -0.5759      2.00000
     47      -0.5319      2.00000
     48      -0.0649      2.00000
     49       0.0325      2.00000
     50       0.0599      2.00000
     51       0.7166      2.00000
     52       0.7243      2.00000
     53       0.7948      2.00000
     54       0.7961      2.00000
     55       0.9652      2.00000
     56       1.0420      2.00000
     57       3.1337      0.00000
     58       3.2941      0.00000
     59       4.2268      0.00000
     60       4.2931      0.00000
     61       4.5021      0.00000
     62       4.6872      0.00000
     63       4.7354      0.00000
     64       4.8125      0.00000

 k-point    55 :       0.2558    0.5000    0.0000
  band No.  band energies     occupation 
      1     -63.0002      2.00000
      2     -62.9983      2.00000
      3     -62.9919      2.00000
      4     -62.9900      2.00000
      5     -36.9942      2.00000
      6     -36.9916      2.00000
      7     -36.9902      2.00000
      8     -36.9847      2.00000
      9     -36.9447      2.00000
     10     -36.8999      2.00000
     11     -36.8991      2.00000
     12     -36.8777      2.00000
     13     -36.8374      2.00000
     14     -36.8250      2.00000
     15     -36.8159      2.00000
     16     -36.8073      2.00000
     17     -16.1449      2.00000
     18     -16.0253      2.00000
     19     -15.3353      2.00000
     20     -15.2551      2.00000
     21     -15.2445      2.00000
     22     -15.1823      2.00000
     23     -14.7939      2.00000
     24     -14.7583      2.00000
     25     -14.6334      2.00000
     26     -14.5939      2.00000
     27      -3.9466      2.00000
     28      -3.9119      2.00000
     29      -3.2810      2.00000
     30      -3.2760      2.00000
     31      -3.1909      2.00000
     32      -3.1692      2.00000
     33      -2.8036      2.00000
     34      -2.7317      2.00000
     35      -2.5947      2.00000
     36      -2.5637      2.00000
     37      -2.5450      2.00000
     38      -2.1958      2.00000
     39      -2.1836      2.00000
     40      -1.5759      2.00000
     41      -1.5360      2.00000
     42      -1.4720      2.00000
     43      -1.0341      2.00000
     44      -1.0315      2.00000
     45      -0.9468      2.00000
     46      -0.5934      2.00000
     47      -0.5108      2.00000
     48      -0.0725      2.00000
     49       0.0764      2.00000
     50       0.0811      2.00000
     51       0.7149      2.00000
     52       0.7583      2.00000
     53       0.8320      2.00000
     54       0.8453      2.00000
     55       0.9856      2.00000
     56       1.0490      2.00000
     57       3.1521      0.00000
     58       3.3206      0.00000
     59       4.2070      0.00000
     60       4.2556      0.00000
     61       4.5115      0.00000
     62       4.6900      0.00000
     63       4.7234      0.00000
     64       4.7845      0.00000

 k-point    56 :       0.2791    0.5000    0.0000
  band No.  band energies     occupation 
      1     -62.9997      2.00000
      2     -62.9978      2.00000
      3     -62.9920      2.00000
      4     -62.9901      2.00000
      5     -36.9936      2.00000
      6     -36.9911      2.00000
      7     -36.9898      2.00000
      8     -36.9845      2.00000
      9     -36.9445      2.00000
     10     -36.9043      2.00000
     11     -36.9011      2.00000
     12     -36.8828      2.00000
     13     -36.8381      2.00000
     14     -36.8283      2.00000
     15     -36.8177      2.00000
     16     -36.8079      2.00000
     17     -16.0858      2.00000
     18     -15.9646      2.00000
     19     -15.3409      2.00000
     20     -15.2476      2.00000
     21     -15.2268      2.00000
     22     -15.1775      2.00000
     23     -14.7838      2.00000
     24     -14.7482      2.00000
     25     -14.6356      2.00000
     26     -14.5964      2.00000
     27      -3.9678      2.00000
     28      -3.9222      2.00000
     29      -3.2732      2.00000
     30      -3.2557      2.00000
     31      -3.1799      2.00000
     32      -3.1670      2.00000
     33      -2.7990      2.00000
     34      -2.7184      2.00000
     35      -2.6553      2.00000
     36      -2.6016      2.00000
     37      -2.5684      2.00000
     38      -2.1809      2.00000
     39      -2.1604      2.00000
     40      -1.6243      2.00000
     41      -1.5830      2.00000
     42      -1.5080      2.00000
     43      -1.2051      2.00000
     44      -1.1847      2.00000
     45      -1.0311      2.00000
     46      -0.6122      2.00000
     47      -0.4799      2.00000
     48      -0.0817      2.00000
     49       0.0766      2.00000
     50       0.1107      2.00000
     51       0.7168      2.00000
     52       0.7964      2.00000
     53       0.8592      2.00000
     54       0.8832      2.00000
     55       1.0082      2.00000
     56       1.0598      2.00000
     57       3.1694      0.00000
     58       3.3456      0.00000
     59       4.1911      0.00000
     60       4.2188      0.00000
     61       4.5232      0.00000
     62       4.6954      0.00000
     63       4.7127      0.00000
     64       4.7687      0.00000

 k-point    57 :       0.3023    0.5000    0.0000
  band No.  band energies     occupation 
      1     -62.9992      2.00000
      2     -62.9973      2.00000
      3     -62.9922      2.00000
      4     -62.9903      2.00000
      5     -36.9931      2.00000
      6     -36.9906      2.00000
      7     -36.9894      2.00000
      8     -36.9843      2.00000
      9     -36.9444      2.00000
     10     -36.9094      2.00000
     11     -36.9025      2.00000
     12     -36.8877      2.00000
     13     -36.8389      2.00000
     14     -36.8314      2.00000
     15     -36.8192      2.00000
     16     -36.8086      2.00000
     17     -16.0250      2.00000
     18     -15.9022      2.00000
     19     -15.3485      2.00000
     20     -15.2435      2.00000
     21     -15.2103      2.00000
     22     -15.1728      2.00000
     23     -14.7733      2.00000
     24     -14.7378      2.00000
     25     -14.6382      2.00000
     26     -14.5994      2.00000
     27      -3.9784      2.00000
     28      -3.9210      2.00000
     29      -3.2648      2.00000
     30      -3.2386      2.00000
     31      -3.1788      2.00000
     32      -3.1662      2.00000
     33      -2.7933      2.00000
     34      -2.7230      2.00000
     35      -2.7169      2.00000
     36      -2.6248      2.00000
     37      -2.5748      2.00000
     38      -2.1663      2.00000
     39      -2.1172      2.00000
     40      -1.6717      2.00000
     41      -1.6276      2.00000
     42      -1.5671      2.00000
     43      -1.3823      2.00000
     44      -1.3165      2.00000
     45      -1.1145      2.00000
     46      -0.6351      2.00000
     47      -0.4447      2.00000
     48      -0.0923      2.00000
     49       0.0480      2.00000
     50       0.1340      2.00000
     51       0.7314      2.00000
     52       0.8303      2.00000
     53       0.8780      2.00000
     54       0.9094      2.00000
     55       1.0316      2.00000
     56       1.0746      2.00000
     57       3.1860      0.00000
     58       3.3674      0.00000
     59       4.1792      0.00000
     60       4.1858      0.00000
     61       4.5375      0.00000
     62       4.7014      0.00000
     63       4.7047      0.00000
     64       4.7627      0.00000

 k-point    58 :       0.3256    0.5000    0.0000
  band No.  band energies     occupation 
      1     -62.9986      2.00000
      2     -62.9968      2.00000
      3     -62.9924      2.00000
      4     -62.9905      2.00000
      5     -36.9925      2.00000
      6     -36.9901      2.00000
      7     -36.9890      2.00000
      8     -36.9841      2.00000
      9     -36.9442      2.00000
     10     -36.9143      2.00000
     11     -36.9039      2.00000
     12     -36.8923      2.00000
     13     -36.8397      2.00000
     14     -36.8342      2.00000
     15     -36.8203      2.00000
     16     -36.8095      2.00000
     17     -15.9635      2.00000
     18     -15.8387      2.00000
     19     -15.3587      2.00000
     20     -15.2434      2.00000
     21     -15.1955      2.00000
     22     -15.1682      2.00000
     23     -14.7626      2.00000
     24     -14.7271      2.00000
     25     -14.6415      2.00000
     26     -14.6030      2.00000
     27      -3.9778      2.00000
     28      -3.9077      2.00000
     29      -3.2556      2.00000
     30      -3.2260      2.00000
     31      -3.2073      2.00000
     32      -3.1487      2.00000
     33      -2.7922      2.00000
     34      -2.7863      2.00000
     35      -2.7274      2.00000
     36      -2.6120      2.00000
     37      -2.5826      2.00000
     38      -2.1524      2.00000
     39      -2.0587      2.00000
     40      -1.7174      2.00000
     41      -1.6732      2.00000
     42      -1.6717      2.00000
     43      -1.5593      2.00000
     44      -1.4007      2.00000
     45      -1.1941      2.00000
     46      -0.6657      2.00000
     47      -0.4067      2.00000
     48      -0.1039      2.00000
     49       0.0029      2.00000
     50       0.1456      2.00000
     51       0.7557      2.00000
     52       0.8595      2.00000
     53       0.8906      2.00000
     54       0.9255      2.00000
     55       1.0542      2.00000
     56       1.0920      2.00000
     57       3.2023      0.00000
     58       3.3846      0.00000
     59       4.1584      0.00000
     60       4.1708      0.00000
     61       4.5546      0.00000
     62       4.6997      0.00000
     63       4.7069      0.00000
     64       4.7635      0.00000

 k-point    59 :       0.3488    0.5000    0.0000
  band No.  band energies     occupation 
      1     -62.9981      2.00000
      2     -62.9962      2.00000
      3     -62.9927      2.00000
      4     -62.9908      2.00000
      5     -36.9919      2.00000
      6     -36.9896      2.00000
      7     -36.9887      2.00000
      8     -36.9841      2.00000
      9     -36.9440      2.00000
     10     -36.9189      2.00000
     11     -36.9055      2.00000
     12     -36.8965      2.00000
     13     -36.8405      2.00000
     14     -36.8367      2.00000
     15     -36.8210      2.00000
     16     -36.8106      2.00000
     17     -15.9019      2.00000
     18     -15.7752      2.00000
     19     -15.3718      2.00000
     20     -15.2480      2.00000
     21     -15.1827      2.00000
     22     -15.1638      2.00000
     23     -14.7518      2.00000
     24     -14.7163      2.00000
     25     -14.6454      2.00000
     26     -14.6072      2.00000
     27      -3.9660      2.00000
     28      -3.8819      2.00000
     29      -3.2511      2.00000
     30      -3.2451      2.00000
     31      -3.2198      2.00000
     32      -3.1263      2.00000
     33      -2.8593      2.00000
     34      -2.7775      2.00000
     35      -2.7339      2.00000
     36      -2.5917      2.00000
     37      -2.5806      2.00000
     38      -2.1397      2.00000
     39      -1.9883      2.00000
     40      -1.8178      2.00000
     41      -1.7609      2.00000
     42      -1.7314      2.00000
     43      -1.7180      2.00000
     44      -1.4420      2.00000
     45      -1.2669      2.00000
     46      -0.7082      2.00000
     47      -0.3667      2.00000
     48      -0.1161      2.00000
     49      -0.0484      2.00000
     50       0.1453      2.00000
     51       0.7849      2.00000
     52       0.8839      2.00000
     53       0.8988      2.00000
     54       0.9342      2.00000
     55       1.0751      2.00000
     56       1.1094      2.00000
     57       3.2187      0.00000
     58       3.3960      0.00000
     59       4.1374      0.00000
     60       4.1649      0.00000
     61       4.5745      0.00000
     62       4.6973      0.00000
     63       4.7113      0.00000
     64       4.7680      0.00000

 k-point    60 :       0.3721    0.5000    0.0000
  band No.  band energies     occupation 
      1     -62.9976      2.00000
      2     -62.9957      2.00000
      3     -62.9929      2.00000
      4     -62.9910      2.00000
      5     -36.9913      2.00000
      6     -36.9890      2.00000
      7     -36.9884      2.00000
      8     -36.9841      2.00000
      9     -36.9438      2.00000
     10     -36.9232      2.00000
     11     -36.9069      2.00000
     12     -36.9002      2.00000
     13     -36.8413      2.00000
     14     -36.8389      2.00000
     15     -36.8214      2.00000
     16     -36.8117      2.00000
     17     -15.8411      2.00000
     18     -15.7123      2.00000
     19     -15.3881      2.00000
     20     -15.2578      2.00000
     21     -15.1719      2.00000
     22     -15.1597      2.00000
     23     -14.7411      2.00000
     24     -14.7055      2.00000
     25     -14.6499      2.00000
     26     -14.6120      2.00000
     27      -3.9432      2.00000
     28      -3.8437      2.00000
     29      -3.3062      2.00000
     30      -3.2330      2.00000
     31      -3.2222      2.00000
     32      -3.0975      2.00000
     33      -2.9216      2.00000
     34      -2.7661      2.00000
     35      -2.7324      2.00000
     36      -2.6019      2.00000
     37      -2.5400      2.00000
     38      -2.1322      2.00000
     39      -1.9738      2.00000
     40      -1.9163      2.00000
     41      -1.8819      2.00000
     42      -1.8019      2.00000
     43      -1.7692      2.00000
     44      -1.4636      2.00000
     45      -1.3298      2.00000
     46      -0.7662      2.00000
     47      -0.3248      2.00000
     48      -0.1286      2.00000
     49      -0.0967      2.00000
     50       0.1337      2.00000
     51       0.8153      2.00000
     52       0.9035      2.00000
     53       0.9045      2.00000
     54       0.9381      2.00000
     55       1.0937      2.00000
     56       1.1249      2.00000
     57       3.2357      0.00000
     58       3.4014      0.00000
     59       4.1228      0.00000
     60       4.1604      0.00000
     61       4.5971      0.00000
     62       4.6970      0.00000
     63       4.7144      0.00000
     64       4.7731      0.00000

 k-point    61 :       0.3953    0.5000    0.0000
  band No.  band energies     occupation 
      1     -62.9971      2.00000
      2     -62.9952      2.00000
      3     -62.9932      2.00000
      4     -62.9913      2.00000
      5     -36.9907      2.00000
      6     -36.9884      2.00000
      7     -36.9882      2.00000
      8     -36.9842      2.00000
      9     -36.9435      2.00000
     10     -36.9272      2.00000
     11     -36.9083      2.00000
     12     -36.9035      2.00000
     13     -36.8421      2.00000
     14     -36.8406      2.00000
     15     -36.8214      2.00000
     16     -36.8129      2.00000
     17     -15.7818      2.00000
     18     -15.6508      2.00000
     19     -15.4080      2.00000
     20     -15.2730      2.00000
     21     -15.1633      2.00000
     22     -15.1560      2.00000
     23     -14.7305      2.00000
     24     -14.6948      2.00000
     25     -14.6551      2.00000
     26     -14.6175      2.00000
     27      -3.9099      2.00000
     28      -3.7938      2.00000
     29      -3.3681      2.00000
     30      -3.2363      2.00000
     31      -3.2188      2.00000
     32      -3.0608      2.00000
     33      -2.9765      2.00000
     34      -2.7512      2.00000
     35      -2.7252      2.00000
     36      -2.6130      2.00000
     37      -2.4957      2.00000
     38      -2.1536      2.00000
     39      -2.1249      2.00000
     40      -2.0129      2.00000
     41      -1.8402      2.00000
     42      -1.8273      2.00000
     43      -1.8141      2.00000
     44      -1.4761      2.00000
     45      -1.3808      2.00000
     46      -0.8415      2.00000
     47      -0.2810      2.00000
     48      -0.1411      2.00000
     49      -0.1354      2.00000
     50       0.1119      2.00000
     51       0.8441      2.00000
     52       0.9089      2.00000
     53       0.9182      2.00000
     54       0.9389      2.00000
     55       1.1098      2.00000
     56       1.1373      2.00000
     57       3.2536      0.00000
     58       3.4008      0.00000
     59       4.1142      0.00000
     60       4.1560      0.00000
     61       4.6217      0.00000
     62       4.6984      0.00000
     63       4.7162      0.00000
     64       4.7763      0.00000

 k-point    62 :       0.4186    0.5000    0.0000
  band No.  band energies     occupation 
      1     -62.9966      2.00000
      2     -62.9947      2.00000
      3     -62.9935      2.00000
      4     -62.9917      2.00000
      5     -36.9902      2.00000
      6     -36.9881      2.00000
      7     -36.9878      2.00000
      8     -36.9845      2.00000
      9     -36.9430      2.00000
     10     -36.9307      2.00000
     11     -36.9095      2.00000
     12     -36.9061      2.00000
     13     -36.8428      2.00000
     14     -36.8420      2.00000
     15     -36.8211      2.00000
     16     -36.8141      2.00000
     17     -15.7247      2.00000
     18     -15.5916      2.00000
     19     -15.4321      2.00000
     20     -15.2939      2.00000
     21     -15.1567      2.00000
     22     -15.1528      2.00000
     23     -14.7201      2.00000
     24     -14.6843      2.00000
     25     -14.6610      2.00000
     26     -14.6237      2.00000
     27      -3.8674      2.00000
     28      -3.7335      2.00000
     29      -3.4336      2.00000
     30      -3.2653      2.00000
     31      -3.2024      2.00000
     32      -3.0222      2.00000
     33      -3.0146      2.00000
     34      -2.7314      2.00000
     35      -2.7146      2.00000
     36      -2.6248      2.00000
     37      -2.4626      2.00000
     38      -2.2512      2.00000
     39      -2.2488      2.00000
     40      -2.0428      2.00000
     41      -1.8925      2.00000
     42      -1.8757      2.00000
     43      -1.7158      2.00000
     44      -1.4835      2.00000
     45      -1.4193      2.00000
     46      -0.9330      2.00000
     47      -0.2356      2.00000
     48      -0.1624      2.00000
     49      -0.1532      2.00000
     50       0.0814      2.00000
     51       0.8698      2.00000
     52       0.9128      2.00000
     53       0.9281      2.00000
     54       0.9378      2.00000
     55       1.1233      2.00000
     56       1.1462      2.00000
     57       3.2726      0.00000
     58       3.3946      0.00000
     59       4.1108      0.00000
     60       4.1509      0.00000
     61       4.6476      0.00000
     62       4.7009      0.00000
     63       4.7169      0.00000
     64       4.7755      0.00000

 k-point    63 :       0.4419    0.5000    0.0000
  band No.  band energies     occupation 
      1     -62.9961      2.00000
      2     -62.9942      2.00000
      3     -62.9939      2.00000
      4     -62.9920      2.00000
      5     -36.9897      2.00000
      6     -36.9881      2.00000
      7     -36.9872      2.00000
      8     -36.9848      2.00000
      9     -36.9423      2.00000
     10     -36.9337      2.00000
     11     -36.9104      2.00000
     12     -36.9082      2.00000
     13     -36.8434      2.00000
     14     -36.8430      2.00000
     15     -36.8205      2.00000
     16     -36.8153      2.00000
     17     -15.6706      2.00000
     18     -15.5354      2.00000
     19     -15.4605      2.00000
     20     -15.3207      2.00000
     21     -15.1521      2.00000
     22     -15.1502      2.00000
     23     -14.7100      2.00000
     24     -14.6741      2.00000
     25     -14.6675      2.00000
     26     -14.6306      2.00000
     27      -3.8170      2.00000
     28      -3.6648      2.00000
     29      -3.5006      2.00000
     30      -3.3103      2.00000
     31      -3.1836      2.00000
     32      -3.0588      2.00000
     33      -2.9572      2.00000
     34      -2.7047      2.00000
     35      -2.7023      2.00000
     36      -2.6371      2.00000
     37      -2.4978      2.00000
     38      -2.3648      2.00000
     39      -2.2931      2.00000
     40      -2.0332      2.00000
     41      -1.9635      2.00000
     42      -1.9086      2.00000
     43      -1.6101      2.00000
     44      -1.4871      2.00000
     45      -1.4469      2.00000
     46      -1.0371      2.00000
     47      -0.1888      2.00000
     48      -0.1784      2.00000
     49      -0.1644      2.00000
     50       0.0439      2.00000
     51       0.8915      2.00000
     52       0.9166      2.00000
     53       0.9334      2.00000
     54       0.9354      2.00000
     55       1.1344      2.00000
     56       1.1516      2.00000
     57       3.2923      0.00000
     58       3.3838      0.00000
     59       4.1117      0.00000
     60       4.1447      0.00000
     61       4.6739      0.00000
     62       4.7039      0.00000
     63       4.7164      0.00000
     64       4.7698      0.00000

 k-point    64 :       0.4651    0.5000    0.0000
  band No.  band energies     occupation 
      1     -62.9956      2.00000
      2     -62.9943      2.00000
      3     -62.9937      2.00000
      4     -62.9924      2.00000
      5     -36.9892      2.00000
      6     -36.9882      2.00000
      7     -36.9867      2.00000
      8     -36.9851      2.00000
      9     -36.9414      2.00000
     10     -36.9363      2.00000
     11     -36.9110      2.00000
     12     -36.9097      2.00000
     13     -36.8438      2.00000
     14     -36.8436      2.00000
     15     -36.8198      2.00000
     16     -36.8166      2.00000
     17     -15.6200      2.00000
     18     -15.4935      2.00000
     19     -15.4829      2.00000
     20     -15.3532      2.00000
     21     -15.1491      2.00000
     22     -15.1484      2.00000
     23     -14.7004      2.00000
     24     -14.6748      2.00000
     25     -14.6643      2.00000
     26     -14.6381      2.00000
     27      -3.7603      2.00000
     28      -3.5904      2.00000
     29      -3.5678      2.00000
     30      -3.3693      2.00000
     31      -3.1626      2.00000
     32      -3.0887      2.00000
     33      -2.8872      2.00000
     34      -2.6894      2.00000
     35      -2.6682      2.00000
     36      -2.6498      2.00000
     37      -2.5996      2.00000
     38      -2.4683      2.00000
     39      -2.2508      2.00000
     40      -2.0379      2.00000
     41      -2.0146      2.00000
     42      -1.9390      2.00000
     43      -1.4987      2.00000
     44      -1.4875      2.00000
     45      -1.4656      2.00000
     46      -1.1494      2.00000
     47      -0.1855      2.00000
     48      -0.1742      2.00000
     49      -0.1408      2.00000
     50       0.0013      2.00000
     51       0.9088      2.00000
     52       0.9205      2.00000
     53       0.9321      2.00000
     54       0.9341      2.00000
     55       1.1431      2.00000
     56       1.1538      2.00000
     57       3.3125      0.00000
     58       3.3692      0.00000
     59       4.1159      0.00000
     60       4.1376      0.00000
     61       4.6993      0.00000
     62       4.7072      0.00000
     63       4.7151      0.00000
     64       4.7588      0.00000

 k-point    65 :       0.4884    0.5000    0.0000
  band No.  band energies     occupation 
      1     -62.9951      2.00000
      2     -62.9947      2.00000
      3     -62.9933      2.00000
      4     -62.9928      2.00000
      5     -36.9888      2.00000
      6     -36.9884      2.00000
      7     -36.9861      2.00000
      8     -36.9856      2.00000
      9     -36.9401      2.00000
     10     -36.9384      2.00000
     11     -36.9111      2.00000
     12     -36.9107      2.00000
     13     -36.8440      2.00000
     14     -36.8439      2.00000
     15     -36.8188      2.00000
     16     -36.8177      2.00000
     17     -15.5734      2.00000
     18     -15.5312      2.00000
     19     -15.4347      2.00000
     20     -15.3913      2.00000
     21     -15.1477      2.00000
     22     -15.1475      2.00000
     23     -14.6913      2.00000
     24     -14.6827      2.00000
     25     -14.6550      2.00000
     26     -14.6462      2.00000
     27      -3.6989      2.00000
     28      -3.6343      2.00000
     29      -3.5136      2.00000
     30      -3.4384      2.00000
     31      -3.1397      2.00000
     32      -3.1151      2.00000
     33      -2.8037      2.00000
     34      -2.7073      2.00000
     35      -2.6757      2.00000
     36      -2.6628      2.00000
     37      -2.6188      2.00000
     38      -2.5530      2.00000
     39      -2.1854      2.00000
     40      -2.1128      2.00000
     41      -1.9921      2.00000
     42      -1.9668      2.00000
     43      -1.4845      2.00000
     44      -1.4776      2.00000
     45      -1.3832      2.00000
     46      -1.2659      2.00000
     47      -0.1860      2.00000
     48      -0.1817      2.00000
     49      -0.0925      2.00000
     50      -0.0447      2.00000
     51       0.9217      2.00000
     52       0.9244      2.00000
     53       0.9284      2.00000
     54       0.9302      2.00000
     55       1.1493      2.00000
     56       1.1529      2.00000
     57       3.3326      0.00000
     58       3.3518      0.00000
     59       4.1223      0.00000
     60       4.1298      0.00000
     61       4.7103      0.00000
     62       4.7130      0.00000
     63       4.7227      0.00000
     64       4.7429      0.00000

 k-point    66 :      -0.4884    0.5000    0.0000
  band No.  band energies     occupation 
      1     -62.9951      2.00000
      2     -62.9947      2.00000
      3     -62.9933      2.00000
      4     -62.9928      2.00000
      5     -36.9888      2.00000
      6     -36.9884      2.00000
      7     -36.9861      2.00000
      8     -36.9856      2.00000
      9     -36.9401      2.00000
     10     -36.9384      2.00000
     11     -36.9111      2.00000
     12     -36.9107      2.00000
     13     -36.8440      2.00000
     14     -36.8439      2.00000
     15     -36.8188      2.00000
     16     -36.8177      2.00000
     17     -15.5734      2.00000
     18     -15.5312      2.00000
     19     -15.4347      2.00000
     20     -15.3913      2.00000
     21     -15.1477      2.00000
     22     -15.1475      2.00000
     23     -14.6913      2.00000
     24     -14.6827      2.00000
     25     -14.6550      2.00000
     26     -14.6462      2.00000
     27      -3.6989      2.00000
     28      -3.6343      2.00000
     29      -3.5136      2.00000
     30      -3.4384      2.00000
     31      -3.1397      2.00000
     32      -3.1151      2.00000
     33      -2.8037      2.00000
     34      -2.7073      2.00000
     35      -2.6757      2.00000
     36      -2.6628      2.00000
     37      -2.6188      2.00000
     38      -2.5530      2.00000
     39      -2.1854      2.00000
     40      -2.1128      2.00000
     41      -1.9921      2.00000
     42      -1.9668      2.00000
     43      -1.4845      2.00000
     44      -1.4776      2.00000
     45      -1.3832      2.00000
     46      -1.2659      2.00000
     47      -0.1860      2.00000
     48      -0.1817      2.00000
     49      -0.0925      2.00000
     50      -0.0447      2.00000
     51       0.9217      2.00000
     52       0.9244      2.00000
     53       0.9284      2.00000
     54       0.9302      2.00000
     55       1.1493      2.00000
     56       1.1529      2.00000
     57       3.3326      0.00000
     58       3.3518      0.00000
     59       4.1223      0.00000
     60       4.1298      0.00000
     61       4.7103      0.00000
     62       4.7130      0.00000
     63       4.7227      0.00000
     64       4.7429      0.00000

 k-point    67 :      -0.4651    0.5000    0.0000
  band No.  band energies     occupation 
      1     -62.9956      2.00000
      2     -62.9943      2.00000
      3     -62.9937      2.00000
      4     -62.9924      2.00000
      5     -36.9892      2.00000
      6     -36.9882      2.00000
      7     -36.9867      2.00000
      8     -36.9851      2.00000
      9     -36.9414      2.00000
     10     -36.9363      2.00000
     11     -36.9110      2.00000
     12     -36.9097      2.00000
     13     -36.8438      2.00000
     14     -36.8436      2.00000
     15     -36.8198      2.00000
     16     -36.8166      2.00000
     17     -15.6200      2.00000
     18     -15.4935      2.00000
     19     -15.4829      2.00000
     20     -15.3532      2.00000
     21     -15.1491      2.00000
     22     -15.1484      2.00000
     23     -14.7004      2.00000
     24     -14.6748      2.00000
     25     -14.6643      2.00000
     26     -14.6381      2.00000
     27      -3.7603      2.00000
     28      -3.5904      2.00000
     29      -3.5678      2.00000
     30      -3.3693      2.00000
     31      -3.1626      2.00000
     32      -3.0887      2.00000
     33      -2.8872      2.00000
     34      -2.6894      2.00000
     35      -2.6682      2.00000
     36      -2.6498      2.00000
     37      -2.5996      2.00000
     38      -2.4683      2.00000
     39      -2.2508      2.00000
     40      -2.0379      2.00000
     41      -2.0146      2.00000
     42      -1.9390      2.00000
     43      -1.4987      2.00000
     44      -1.4875      2.00000
     45      -1.4656      2.00000
     46      -1.1494      2.00000
     47      -0.1855      2.00000
     48      -0.1742      2.00000
     49      -0.1408      2.00000
     50       0.0013      2.00000
     51       0.9088      2.00000
     52       0.9205      2.00000
     53       0.9321      2.00000
     54       0.9341      2.00000
     55       1.1431      2.00000
     56       1.1538      2.00000
     57       3.3125      0.00000
     58       3.3692      0.00000
     59       4.1159      0.00000
     60       4.1376      0.00000
     61       4.6993      0.00000
     62       4.7072      0.00000
     63       4.7151      0.00000
     64       4.7588      0.00000

 k-point    68 :      -0.4419    0.5000    0.0000
  band No.  band energies     occupation 
      1     -62.9961      2.00000
      2     -62.9942      2.00000
      3     -62.9939      2.00000
      4     -62.9920      2.00000
      5     -36.9897      2.00000
      6     -36.9881      2.00000
      7     -36.9872      2.00000
      8     -36.9848      2.00000
      9     -36.9423      2.00000
     10     -36.9337      2.00000
     11     -36.9104      2.00000
     12     -36.9082      2.00000
     13     -36.8434      2.00000
     14     -36.8430      2.00000
     15     -36.8205      2.00000
     16     -36.8153      2.00000
     17     -15.6706      2.00000
     18     -15.5354      2.00000
     19     -15.4605      2.00000
     20     -15.3207      2.00000
     21     -15.1521      2.00000
     22     -15.1502      2.00000
     23     -14.7100      2.00000
     24     -14.6741      2.00000
     25     -14.6675      2.00000
     26     -14.6306      2.00000
     27      -3.8170      2.00000
     28      -3.6648      2.00000
     29      -3.5006      2.00000
     30      -3.3103      2.00000
     31      -3.1836      2.00000
     32      -3.0588      2.00000
     33      -2.9572      2.00000
     34      -2.7047      2.00000
     35      -2.7023      2.00000
     36      -2.6371      2.00000
     37      -2.4978      2.00000
     38      -2.3648      2.00000
     39      -2.2931      2.00000
     40      -2.0332      2.00000
     41      -1.9635      2.00000
     42      -1.9086      2.00000
     43      -1.6101      2.00000
     44      -1.4871      2.00000
     45      -1.4469      2.00000
     46      -1.0371      2.00000
     47      -0.1888      2.00000
     48      -0.1784      2.00000
     49      -0.1644      2.00000
     50       0.0439      2.00000
     51       0.8915      2.00000
     52       0.9166      2.00000
     53       0.9334      2.00000
     54       0.9354      2.00000
     55       1.1344      2.00000
     56       1.1516      2.00000
     57       3.2923      0.00000
     58       3.3838      0.00000
     59       4.1117      0.00000
     60       4.1447      0.00000
     61       4.6739      0.00000
     62       4.7039      0.00000
     63       4.7164      0.00000
     64       4.7698      0.00000

 k-point    69 :      -0.4186    0.5000    0.0000
  band No.  band energies     occupation 
      1     -62.9966      2.00000
      2     -62.9947      2.00000
      3     -62.9935      2.00000
      4     -62.9917      2.00000
      5     -36.9902      2.00000
      6     -36.9881      2.00000
      7     -36.9878      2.00000
      8     -36.9845      2.00000
      9     -36.9430      2.00000
     10     -36.9307      2.00000
     11     -36.9095      2.00000
     12     -36.9061      2.00000
     13     -36.8428      2.00000
     14     -36.8420      2.00000
     15     -36.8211      2.00000
     16     -36.8141      2.00000
     17     -15.7247      2.00000
     18     -15.5916      2.00000
     19     -15.4321      2.00000
     20     -15.2939      2.00000
     21     -15.1567      2.00000
     22     -15.1528      2.00000
     23     -14.7201      2.00000
     24     -14.6843      2.00000
     25     -14.6610      2.00000
     26     -14.6237      2.00000
     27      -3.8674      2.00000
     28      -3.7335      2.00000
     29      -3.4336      2.00000
     30      -3.2653      2.00000
     31      -3.2024      2.00000
     32      -3.0222      2.00000
     33      -3.0146      2.00000
     34      -2.7314      2.00000
     35      -2.7146      2.00000
     36      -2.6248      2.00000
     37      -2.4626      2.00000
     38      -2.2512      2.00000
     39      -2.2488      2.00000
     40      -2.0428      2.00000
     41      -1.8925      2.00000
     42      -1.8757      2.00000
     43      -1.7158      2.00000
     44      -1.4835      2.00000
     45      -1.4193      2.00000
     46      -0.9330      2.00000
     47      -0.2356      2.00000
     48      -0.1624      2.00000
     49      -0.1532      2.00000
     50       0.0814      2.00000
     51       0.8698      2.00000
     52       0.9128      2.00000
     53       0.9281      2.00000
     54       0.9378      2.00000
     55       1.1233      2.00000
     56       1.1462      2.00000
     57       3.2726      0.00000
     58       3.3946      0.00000
     59       4.1108      0.00000
     60       4.1509      0.00000
     61       4.6476      0.00000
     62       4.7009      0.00000
     63       4.7169      0.00000
     64       4.7755      0.00000

 k-point    70 :      -0.3953    0.5000    0.0000
  band No.  band energies     occupation 
      1     -62.9971      2.00000
      2     -62.9952      2.00000
      3     -62.9932      2.00000
      4     -62.9913      2.00000
      5     -36.9907      2.00000
      6     -36.9884      2.00000
      7     -36.9882      2.00000
      8     -36.9842      2.00000
      9     -36.9435      2.00000
     10     -36.9272      2.00000
     11     -36.9083      2.00000
     12     -36.9035      2.00000
     13     -36.8421      2.00000
     14     -36.8406      2.00000
     15     -36.8214      2.00000
     16     -36.8129      2.00000
     17     -15.7818      2.00000
     18     -15.6508      2.00000
     19     -15.4080      2.00000
     20     -15.2730      2.00000
     21     -15.1633      2.00000
     22     -15.1560      2.00000
     23     -14.7305      2.00000
     24     -14.6948      2.00000
     25     -14.6551      2.00000
     26     -14.6175      2.00000
     27      -3.9099      2.00000
     28      -3.7938      2.00000
     29      -3.3681      2.00000
     30      -3.2363      2.00000
     31      -3.2188      2.00000
     32      -3.0608      2.00000
     33      -2.9765      2.00000
     34      -2.7512      2.00000
     35      -2.7252      2.00000
     36      -2.6130      2.00000
     37      -2.4957      2.00000
     38      -2.1536      2.00000
     39      -2.1249      2.00000
     40      -2.0129      2.00000
     41      -1.8402      2.00000
     42      -1.8273      2.00000
     43      -1.8141      2.00000
     44      -1.4761      2.00000
     45      -1.3808      2.00000
     46      -0.8415      2.00000
     47      -0.2810      2.00000
     48      -0.1411      2.00000
     49      -0.1354      2.00000
     50       0.1119      2.00000
     51       0.8441      2.00000
     52       0.9089      2.00000
     53       0.9182      2.00000
     54       0.9389      2.00000
     55       1.1098      2.00000
     56       1.1373      2.00000
     57       3.2536      0.00000
     58       3.4008      0.00000
     59       4.1142      0.00000
     60       4.1560      0.00000
     61       4.6217      0.00000
     62       4.6984      0.00000
     63       4.7162      0.00000
     64       4.7763      0.00000

 k-point    71 :      -0.3721    0.5000    0.0000
  band No.  band energies     occupation 
      1     -62.9976      2.00000
      2     -62.9957      2.00000
      3     -62.9929      2.00000
      4     -62.9910      2.00000
      5     -36.9913      2.00000
      6     -36.9890      2.00000
      7     -36.9884      2.00000
      8     -36.9841      2.00000
      9     -36.9438      2.00000
     10     -36.9232      2.00000
     11     -36.9069      2.00000
     12     -36.9002      2.00000
     13     -36.8413      2.00000
     14     -36.8389      2.00000
     15     -36.8214      2.00000
     16     -36.8117      2.00000
     17     -15.8411      2.00000
     18     -15.7123      2.00000
     19     -15.3881      2.00000
     20     -15.2578      2.00000
     21     -15.1719      2.00000
     22     -15.1597      2.00000
     23     -14.7411      2.00000
     24     -14.7055      2.00000
     25     -14.6499      2.00000
     26     -14.6120      2.00000
     27      -3.9432      2.00000
     28      -3.8437      2.00000
     29      -3.3062      2.00000
     30      -3.2330      2.00000
     31      -3.2222      2.00000
     32      -3.0975      2.00000
     33      -2.9216      2.00000
     34      -2.7661      2.00000
     35      -2.7324      2.00000
     36      -2.6019      2.00000
     37      -2.5400      2.00000
     38      -2.1322      2.00000
     39      -1.9738      2.00000
     40      -1.9163      2.00000
     41      -1.8819      2.00000
     42      -1.8019      2.00000
     43      -1.7692      2.00000
     44      -1.4636      2.00000
     45      -1.3298      2.00000
     46      -0.7662      2.00000
     47      -0.3248      2.00000
     48      -0.1286      2.00000
     49      -0.0967      2.00000
     50       0.1337      2.00000
     51       0.8153      2.00000
     52       0.9035      2.00000
     53       0.9045      2.00000
     54       0.9381      2.00000
     55       1.0937      2.00000
     56       1.1249      2.00000
     57       3.2357      0.00000
     58       3.4014      0.00000
     59       4.1228      0.00000
     60       4.1604      0.00000
     61       4.5971      0.00000
     62       4.6970      0.00000
     63       4.7144      0.00000
     64       4.7731      0.00000

 k-point    72 :      -0.3488    0.5000    0.0000
  band No.  band energies     occupation 
      1     -62.9981      2.00000
      2     -62.9962      2.00000
      3     -62.9927      2.00000
      4     -62.9908      2.00000
      5     -36.9919      2.00000
      6     -36.9896      2.00000
      7     -36.9887      2.00000
      8     -36.9841      2.00000
      9     -36.9440      2.00000
     10     -36.9189      2.00000
     11     -36.9055      2.00000
     12     -36.8965      2.00000
     13     -36.8405      2.00000
     14     -36.8367      2.00000
     15     -36.8210      2.00000
     16     -36.8106      2.00000
     17     -15.9019      2.00000
     18     -15.7752      2.00000
     19     -15.3718      2.00000
     20     -15.2480      2.00000
     21     -15.1827      2.00000
     22     -15.1638      2.00000
     23     -14.7518      2.00000
     24     -14.7163      2.00000
     25     -14.6454      2.00000
     26     -14.6072      2.00000
     27      -3.9660      2.00000
     28      -3.8819      2.00000
     29      -3.2511      2.00000
     30      -3.2451      2.00000
     31      -3.2198      2.00000
     32      -3.1263      2.00000
     33      -2.8593      2.00000
     34      -2.7775      2.00000
     35      -2.7339      2.00000
     36      -2.5917      2.00000
     37      -2.5806      2.00000
     38      -2.1397      2.00000
     39      -1.9883      2.00000
     40      -1.8178      2.00000
     41      -1.7609      2.00000
     42      -1.7314      2.00000
     43      -1.7180      2.00000
     44      -1.4420      2.00000
     45      -1.2669      2.00000
     46      -0.7082      2.00000
     47      -0.3667      2.00000
     48      -0.1161      2.00000
     49      -0.0484      2.00000
     50       0.1453      2.00000
     51       0.7849      2.00000
     52       0.8839      2.00000
     53       0.8988      2.00000
     54       0.9342      2.00000
     55       1.0751      2.00000
     56       1.1094      2.00000
     57       3.2187      0.00000
     58       3.3960      0.00000
     59       4.1374      0.00000
     60       4.1649      0.00000
     61       4.5745      0.00000
     62       4.6973      0.00000
     63       4.7113      0.00000
     64       4.7680      0.00000

 k-point    73 :      -0.3256    0.5000    0.0000
  band No.  band energies     occupation 
      1     -62.9986      2.00000
      2     -62.9968      2.00000
      3     -62.9924      2.00000
      4     -62.9905      2.00000
      5     -36.9925      2.00000
      6     -36.9901      2.00000
      7     -36.9890      2.00000
      8     -36.9841      2.00000
      9     -36.9442      2.00000
     10     -36.9143      2.00000
     11     -36.9039      2.00000
     12     -36.8923      2.00000
     13     -36.8397      2.00000
     14     -36.8342      2.00000
     15     -36.8203      2.00000
     16     -36.8095      2.00000
     17     -15.9635      2.00000
     18     -15.8387      2.00000
     19     -15.3587      2.00000
     20     -15.2434      2.00000
     21     -15.1955      2.00000
     22     -15.1682      2.00000
     23     -14.7626      2.00000
     24     -14.7271      2.00000
     25     -14.6415      2.00000
     26     -14.6030      2.00000
     27      -3.9778      2.00000
     28      -3.9077      2.00000
     29      -3.2556      2.00000
     30      -3.2260      2.00000
     31      -3.2073      2.00000
     32      -3.1487      2.00000
     33      -2.7922      2.00000
     34      -2.7863      2.00000
     35      -2.7274      2.00000
     36      -2.6120      2.00000
     37      -2.5826      2.00000
     38      -2.1524      2.00000
     39      -2.0587      2.00000
     40      -1.7174      2.00000
     41      -1.6732      2.00000
     42      -1.6717      2.00000
     43      -1.5593      2.00000
     44      -1.4007      2.00000
     45      -1.1941      2.00000
     46      -0.6657      2.00000
     47      -0.4067      2.00000
     48      -0.1039      2.00000
     49       0.0029      2.00000
     50       0.1456      2.00000
     51       0.7557      2.00000
     52       0.8595      2.00000
     53       0.8906      2.00000
     54       0.9255      2.00000
     55       1.0542      2.00000
     56       1.0920      2.00000
     57       3.2023      0.00000
     58       3.3846      0.00000
     59       4.1584      0.00000
     60       4.1708      0.00000
     61       4.5546      0.00000
     62       4.6997      0.00000
     63       4.7069      0.00000
     64       4.7635      0.00000

 k-point    74 :      -0.3023    0.5000    0.0000
  band No.  band energies     occupation 
      1     -62.9992      2.00000
      2     -62.9973      2.00000
      3     -62.9922      2.00000
      4     -62.9903      2.00000
      5     -36.9931      2.00000
      6     -36.9906      2.00000
      7     -36.9894      2.00000
      8     -36.9843      2.00000
      9     -36.9444      2.00000
     10     -36.9094      2.00000
     11     -36.9025      2.00000
     12     -36.8877      2.00000
     13     -36.8389      2.00000
     14     -36.8314      2.00000
     15     -36.8192      2.00000
     16     -36.8086      2.00000
     17     -16.0250      2.00000
     18     -15.9022      2.00000
     19     -15.3485      2.00000
     20     -15.2435      2.00000
     21     -15.2103      2.00000
     22     -15.1728      2.00000
     23     -14.7733      2.00000
     24     -14.7378      2.00000
     25     -14.6382      2.00000
     26     -14.5994      2.00000
     27      -3.9784      2.00000
     28      -3.9210      2.00000
     29      -3.2648      2.00000
     30      -3.2386      2.00000
     31      -3.1788      2.00000
     32      -3.1662      2.00000
     33      -2.7933      2.00000
     34      -2.7230      2.00000
     35      -2.7169      2.00000
     36      -2.6248      2.00000
     37      -2.5748      2.00000
     38      -2.1663      2.00000
     39      -2.1172      2.00000
     40      -1.6717      2.00000
     41      -1.6276      2.00000
     42      -1.5671      2.00000
     43      -1.3823      2.00000
     44      -1.3165      2.00000
     45      -1.1145      2.00000
     46      -0.6351      2.00000
     47      -0.4447      2.00000
     48      -0.0923      2.00000
     49       0.0480      2.00000
     50       0.1340      2.00000
     51       0.7314      2.00000
     52       0.8303      2.00000
     53       0.8780      2.00000
     54       0.9094      2.00000
     55       1.0316      2.00000
     56       1.0746      2.00000
     57       3.1860      0.00000
     58       3.3674      0.00000
     59       4.1792      0.00000
     60       4.1858      0.00000
     61       4.5375      0.00000
     62       4.7014      0.00000
     63       4.7047      0.00000
     64       4.7627      0.00000

 k-point    75 :      -0.2791    0.5000    0.0000
  band No.  band energies     occupation 
      1     -62.9997      2.00000
      2     -62.9978      2.00000
      3     -62.9920      2.00000
      4     -62.9901      2.00000
      5     -36.9936      2.00000
      6     -36.9911      2.00000
      7     -36.9898      2.00000
      8     -36.9845      2.00000
      9     -36.9445      2.00000
     10     -36.9043      2.00000
     11     -36.9011      2.00000
     12     -36.8828      2.00000
     13     -36.8381      2.00000
     14     -36.8283      2.00000
     15     -36.8177      2.00000
     16     -36.8079      2.00000
     17     -16.0858      2.00000
     18     -15.9646      2.00000
     19     -15.3409      2.00000
     20     -15.2476      2.00000
     21     -15.2268      2.00000
     22     -15.1775      2.00000
     23     -14.7838      2.00000
     24     -14.7482      2.00000
     25     -14.6356      2.00000
     26     -14.5964      2.00000
     27      -3.9678      2.00000
     28      -3.9222      2.00000
     29      -3.2732      2.00000
     30      -3.2557      2.00000
     31      -3.1799      2.00000
     32      -3.1670      2.00000
     33      -2.7990      2.00000
     34      -2.7184      2.00000
     35      -2.6553      2.00000
     36      -2.6016      2.00000
     37      -2.5684      2.00000
     38      -2.1809      2.00000
     39      -2.1604      2.00000
     40      -1.6243      2.00000
     41      -1.5830      2.00000
     42      -1.5080      2.00000
     43      -1.2051      2.00000
     44      -1.1847      2.00000
     45      -1.0311      2.00000
     46      -0.6122      2.00000
     47      -0.4799      2.00000
     48      -0.0817      2.00000
     49       0.0766      2.00000
     50       0.1107      2.00000
     51       0.7168      2.00000
     52       0.7964      2.00000
     53       0.8592      2.00000
     54       0.8832      2.00000
     55       1.0082      2.00000
     56       1.0598      2.00000
     57       3.1694      0.00000
     58       3.3456      0.00000
     59       4.1911      0.00000
     60       4.2188      0.00000
     61       4.5232      0.00000
     62       4.6954      0.00000
     63       4.7127      0.00000
     64       4.7687      0.00000

 k-point    76 :      -0.2558    0.5000    0.0000
  band No.  band energies     occupation 
      1     -63.0002      2.00000
      2     -62.9983      2.00000
      3     -62.9919      2.00000
      4     -62.9900      2.00000
      5     -36.9942      2.00000
      6     -36.9916      2.00000
      7     -36.9902      2.00000
      8     -36.9847      2.00000
      9     -36.9447      2.00000
     10     -36.8999      2.00000
     11     -36.8991      2.00000
     12     -36.8777      2.00000
     13     -36.8374      2.00000
     14     -36.8250      2.00000
     15     -36.8159      2.00000
     16     -36.8073      2.00000
     17     -16.1449      2.00000
     18     -16.0253      2.00000
     19     -15.3353      2.00000
     20     -15.2551      2.00000
     21     -15.2445      2.00000
     22     -15.1823      2.00000
     23     -14.7939      2.00000
     24     -14.7583      2.00000
     25     -14.6334      2.00000
     26     -14.5939      2.00000
     27      -3.9466      2.00000
     28      -3.9119      2.00000
     29      -3.2810      2.00000
     30      -3.2760      2.00000
     31      -3.1909      2.00000
     32      -3.1692      2.00000
     33      -2.8036      2.00000
     34      -2.7317      2.00000
     35      -2.5947      2.00000
     36      -2.5637      2.00000
     37      -2.5450      2.00000
     38      -2.1958      2.00000
     39      -2.1836      2.00000
     40      -1.5759      2.00000
     41      -1.5360      2.00000
     42      -1.4720      2.00000
     43      -1.0341      2.00000
     44      -1.0315      2.00000
     45      -0.9468      2.00000
     46      -0.5934      2.00000
     47      -0.5108      2.00000
     48      -0.0725      2.00000
     49       0.0764      2.00000
     50       0.0811      2.00000
     51       0.7149      2.00000
     52       0.7583      2.00000
     53       0.8320      2.00000
     54       0.8453      2.00000
     55       0.9856      2.00000
     56       1.0490      2.00000
     57       3.1521      0.00000
     58       3.3206      0.00000
     59       4.2070      0.00000
     60       4.2556      0.00000
     61       4.5115      0.00000
     62       4.6900      0.00000
     63       4.7234      0.00000
     64       4.7845      0.00000

 k-point    77 :      -0.2326    0.5000    0.0000
  band No.  band energies     occupation 
      1     -63.0006      2.00000
      2     -62.9987      2.00000
      3     -62.9917      2.00000
      4     -62.9898      2.00000
      5     -36.9947      2.00000
      6     -36.9921      2.00000
      7     -36.9906      2.00000
      8     -36.9849      2.00000
      9     -36.9449      2.00000
     10     -36.8989      2.00000
     11     -36.8939      2.00000
     12     -36.8725      2.00000
     13     -36.8368      2.00000
     14     -36.8216      2.00000
     15     -36.8138      2.00000
     16     -36.8069      2.00000
     17     -16.2017      2.00000
     18     -16.0835      2.00000
     19     -15.3318      2.00000
     20     -15.2653      2.00000
     21     -15.2629      2.00000
     22     -15.1870      2.00000
     23     -14.8037      2.00000
     24     -14.7680      2.00000
     25     -14.6317      2.00000
     26     -14.5918      2.00000
     27      -3.9157      2.00000
     28      -3.8908      2.00000
     29      -3.2982      2.00000
     30      -3.2887      2.00000
     31      -3.2002      2.00000
     32      -3.1810      2.00000
     33      -2.8074      2.00000
     34      -2.7475      2.00000
     35      -2.5605      2.00000
     36      -2.5494      2.00000
     37      -2.4691      2.00000
     38      -2.2042      2.00000
     39      -2.1869      2.00000
     40      -1.5274      2.00000
     41      -1.4853      2.00000
     42      -1.4433      2.00000
     43      -0.8887      2.00000
     44      -0.8649      2.00000
     45      -0.8641      2.00000
     46      -0.5759      2.00000
     47      -0.5319      2.00000
     48      -0.0649      2.00000
     49       0.0325      2.00000
     50       0.0599      2.00000
     51       0.7166      2.00000
     52       0.7243      2.00000
     53       0.7948      2.00000
     54       0.7961      2.00000
     55       0.9652      2.00000
     56       1.0420      2.00000
     57       3.1337      0.00000
     58       3.2941      0.00000
     59       4.2268      0.00000
     60       4.2931      0.00000
     61       4.5021      0.00000
     62       4.6872      0.00000
     63       4.7354      0.00000
     64       4.8125      0.00000

 k-point    78 :      -0.2093    0.5000    0.0000
  band No.  band energies     occupation 
      1     -63.0011      2.00000
      2     -62.9992      2.00000
      3     -62.9916      2.00000
      4     -62.9897      2.00000
      5     -36.9952      2.00000
      6     -36.9925      2.00000
      7     -36.9911      2.00000
      8     -36.9852      2.00000
      9     -36.9452      2.00000
     10     -36.8980      2.00000
     11     -36.8888      2.00000
     12     -36.8671      2.00000
     13     -36.8363      2.00000
     14     -36.8181      2.00000
     15     -36.8115      2.00000
     16     -36.8067      2.00000
     17     -16.2555      2.00000
     18     -16.1385      2.00000
     19     -15.3303      2.00000
     20     -15.2809      2.00000
     21     -15.2775      2.00000
     22     -15.1915      2.00000
     23     -14.8129      2.00000
     24     -14.7771      2.00000
     25     -14.6304      2.00000
     26     -14.5902      2.00000
     27      -3.8762      2.00000
     28      -3.8605      2.00000
     29      -3.3214      2.00000
     30      -3.2967      2.00000
     31      -3.2084      2.00000
     32      -3.1983      2.00000
     33      -2.8107      2.00000
     34      -2.7625      2.00000
     35      -2.5589      2.00000
     36      -2.5252      2.00000
     37      -2.3821      2.00000
     38      -2.2135      2.00000
     39      -2.1582      2.00000
     40      -1.4800      2.00000
     41      -1.4304      2.00000
     42      -1.4170      2.00000
     43      -0.7856      2.00000
     44      -0.7743      2.00000
     45      -0.7082      2.00000
     46      -0.5576      2.00000
     47      -0.5255      2.00000
     48      -0.0595      2.00000
     49      -0.0187      2.00000
     50       0.0170      2.00000
     51       0.6721      2.00000
     52       0.7372      2.00000
     53       0.7395      2.00000
     54       0.7477      2.00000
     55       0.9475      2.00000
     56       1.0380      2.00000
     57       3.1143      0.00000
     58       3.2681      0.00000
     59       4.2497      0.00000
     60       4.3269      0.00000
     61       4.4946      0.00000
     62       4.6887      0.00000
     63       4.7452      0.00000
     64       4.8543      0.00000

 k-point    79 :      -0.1860    0.5000    0.0000
  band No.  band energies     occupation 
      1     -63.0015      2.00000
      2     -62.9996      2.00000
      3     -62.9915      2.00000
      4     -62.9896      2.00000
      5     -36.9957      2.00000
      6     -36.9929      2.00000
      7     -36.9915      2.00000
      8     -36.9855      2.00000
      9     -36.9454      2.00000
     10     -36.8973      2.00000
     11     -36.8838      2.00000
     12     -36.8619      2.00000
     13     -36.8359      2.00000
     14     -36.8147      2.00000
     15     -36.8091      2.00000
     16     -36.8067      2.00000
     17     -16.3055      2.00000
     18     -16.1897      2.00000
     19     -15.3317      2.00000
     20     -15.2970      2.00000
     21     -15.2908      2.00000
     22     -15.1958      2.00000
     23     -14.8214      2.00000
     24     -14.7855      2.00000
     25     -14.6294      2.00000
     26     -14.5889      2.00000
     27      -3.8297      2.00000
     28      -3.8223      2.00000
     29      -3.3445      2.00000
     30      -3.3052      2.00000
     31      -3.2180      2.00000
     32      -3.2163      2.00000
     33      -2.8135      2.00000
     34      -2.7760      2.00000
     35      -2.5586      2.00000
     36      -2.5197      2.00000
     37      -2.2886      2.00000
     38      -2.2231      2.00000
     39      -2.1030      2.00000
     40      -1.4349      2.00000
     41      -1.3919      2.00000
     42      -1.3714      2.00000
     43      -0.7256      2.00000
     44      -0.7141      2.00000
     45      -0.5645      2.00000
     46      -0.5372      2.00000
     47      -0.4607      2.00000
     48      -0.0740      2.00000
     49      -0.0563      2.00000
     50      -0.0410      2.00000
     51       0.6261      2.00000
     52       0.6707      2.00000
     53       0.6919      2.00000
     54       0.7541      2.00000
     55       0.9323      2.00000
     56       1.0359      2.00000
     57       3.0944      0.00000
     58       3.2442      0.00000
     59       4.2746      0.00000
     60       4.3528      0.00000
     61       4.4889      0.00000
     62       4.6945      0.00000
     63       4.7476      0.00000
     64       4.8876      0.00000

 k-point    80 :      -0.1628    0.5000    0.0000
  band No.  band energies     occupation 
      1     -63.0018      2.00000
      2     -63.0000      2.00000
      3     -62.9914      2.00000
      4     -62.9895      2.00000
      5     -36.9961      2.00000
      6     -36.9932      2.00000
      7     -36.9918      2.00000
      8     -36.9858      2.00000
      9     -36.9456      2.00000
     10     -36.8968      2.00000
     11     -36.8790      2.00000
     12     -36.8567      2.00000
     13     -36.8357      2.00000
     14     -36.8114      2.00000
     15     -36.8069      2.00000
     16     -36.8066      2.00000
     17     -16.3511      2.00000
     18     -16.2363      2.00000
     19     -15.3384      2.00000
     20     -15.3080      2.00000
     21     -15.3047      2.00000
     22     -15.1998      2.00000
     23     -14.8292      2.00000
     24     -14.7931      2.00000
     25     -14.6287      2.00000
     26     -14.5880      2.00000
     27      -3.7779      2.00000
     28      -3.7777      2.00000
     29      -3.3666      2.00000
     30      -3.3146      2.00000
     31      -3.2380      2.00000
     32      -3.2243      2.00000
     33      -2.8158      2.00000
     34      -2.7879      2.00000
     35      -2.5593      2.00000
     36      -2.5249      2.00000
     37      -2.2317      2.00000
     38      -2.1920      2.00000
     39      -2.0322      2.00000
     40      -1.3933      2.00000
     41      -1.3681      2.00000
     42      -1.3090      2.00000
     43      -0.7273      2.00000
     44      -0.6534      2.00000
     45      -0.5138      2.00000
     46      -0.4364      2.00000
     47      -0.3553      2.00000
     48      -0.1282      2.00000
     49      -0.1074      2.00000
     50      -0.0554      2.00000
     51       0.5800      2.00000
     52       0.5989      2.00000
     53       0.6295      2.00000
     54       0.7633      2.00000
     55       0.9193      2.00000
     56       1.0350      2.00000
     57       3.0747      0.00000
     58       3.2237      0.00000
     59       4.3001      0.00000
     60       4.3690      0.00000
     61       4.4845      0.00000
     62       4.7023      0.00000
     63       4.7401      0.00000
     64       4.9042      0.00000

 k-point    81 :      -0.1395    0.5000    0.0000
  band No.  band energies     occupation 
      1     -63.0022      2.00000
      2     -63.0003      2.00000
      3     -62.9914      2.00000
      4     -62.9895      2.00000
      5     -36.9965      2.00000
      6     -36.9935      2.00000
      7     -36.9922      2.00000
      8     -36.9860      2.00000
      9     -36.9459      2.00000
     10     -36.8965      2.00000
     11     -36.8746      2.00000
     12     -36.8518      2.00000
     13     -36.8356      2.00000
     14     -36.8084      2.00000
     15     -36.8074      2.00000
     16     -36.8043      2.00000
     17     -16.3919      2.00000
     18     -16.2779      2.00000
     19     -15.3503      2.00000
     20     -15.3182      2.00000
     21     -15.3130      2.00000
     22     -15.2034      2.00000
     23     -14.8361      2.00000
     24     -14.8000      2.00000
     25     -14.6283      2.00000
     26     -14.5873      2.00000
     27      -3.7292      2.00000
     28      -3.7225      2.00000
     29      -3.3871      2.00000
     30      -3.3254      2.00000
     31      -3.2570      2.00000
     32      -3.2331      2.00000
     33      -2.8179      2.00000
     34      -2.7981      2.00000
     35      -2.5609      2.00000
     36      -2.5343      2.00000
     37      -2.2392      2.00000
     38      -2.0952      2.00000
     39      -1.9549      2.00000
     40      -1.3564      2.00000
     41      -1.3469      2.00000
     42      -1.2441      2.00000
     43      -0.7444      2.00000
     44      -0.6091      2.00000
     45      -0.4874      2.00000
     46      -0.3272      2.00000
     47      -0.2454      2.00000
     48      -0.1765      2.00000
     49      -0.1741      2.00000
     50      -0.0553      2.00000
     51       0.5244      2.00000
     52       0.5356      2.00000
     53       0.5627      2.00000
     54       0.7650      2.00000
     55       0.9081      2.00000
     56       1.0347      2.00000
     57       3.0559      0.00000
     58       3.2072      0.00000
     59       4.3251      0.00000
     60       4.3766      0.00000
     61       4.4812      0.00000
     62       4.7092      0.00000
     63       4.7263      0.00000
     64       4.9317      0.00000

 k-point    82 :      -0.1163    0.5000    0.0000
  band No.  band energies     occupation 
      1     -63.0025      2.00000
      2     -63.0006      2.00000
      3     -62.9913      2.00000
      4     -62.9894      2.00000
      5     -36.9969      2.00000
      6     -36.9938      2.00000
      7     -36.9925      2.00000
      8     -36.9862      2.00000
      9     -36.9461      2.00000
     10     -36.8962      2.00000
     11     -36.8705      2.00000
     12     -36.8472      2.00000
     13     -36.8356      2.00000
     14     -36.8081      2.00000
     15     -36.8057      2.00000
     16     -36.8021      2.00000
     17     -16.4272      2.00000
     18     -16.3139      2.00000
     19     -15.3639      2.00000
     20     -15.3309      2.00000
     21     -15.3151      2.00000
     22     -15.2066      2.00000
     23     -14.8421      2.00000
     24     -14.8059      2.00000
     25     -14.6280      2.00000
     26     -14.5867      2.00000
     27      -3.6783      2.00000
     28      -3.6664      2.00000
     29      -3.4055      2.00000
     30      -3.3379      2.00000
     31      -3.2740      2.00000
     32      -3.2431      2.00000
     33      -2.8195      2.00000
     34      -2.8068      2.00000
     35      -2.5628      2.00000
     36      -2.5446      2.00000
     37      -2.2457      2.00000
     38      -2.0011      2.00000
     39      -1.8777      2.00000
     40      -1.3301      2.00000
     41      -1.3250      2.00000
     42      -1.1784      2.00000
     43      -0.7633      2.00000
     44      -0.5884      2.00000
     45      -0.4590      2.00000
     46      -0.2436      2.00000
     47      -0.2424      2.00000
     48      -0.2027      2.00000
     49      -0.1452      2.00000
     50      -0.0515      2.00000
     51       0.4502      2.00000
     52       0.4941      2.00000
     53       0.4947      2.00000
     54       0.7589      2.00000
     55       0.8987      2.00000
     56       1.0348      2.00000
     57       3.0388      0.00000
     58       3.1947      0.00000
     59       4.3486      0.00000
     60       4.3784      0.00000
     61       4.4789      0.00000
     62       4.7101      0.00000
     63       4.7140      0.00000
     64       4.9641      0.00000

 k-point    83 :      -0.0930    0.5000    0.0000
  band No.  band energies     occupation 
      1     -63.0027      2.00000
      2     -63.0008      2.00000
      3     -62.9913      2.00000
      4     -62.9894      2.00000
      5     -36.9972      2.00000
      6     -36.9940      2.00000
      7     -36.9928      2.00000
      8     -36.9864      2.00000
      9     -36.9463      2.00000
     10     -36.8960      2.00000
     11     -36.8670      2.00000
     12     -36.8431      2.00000
     13     -36.8358      2.00000
     14     -36.8089      2.00000
     15     -36.8033      2.00000
     16     -36.8002      2.00000
     17     -16.4567      2.00000
     18     -16.3440      2.00000
     19     -15.3766      2.00000
     20     -15.3421      2.00000
     21     -15.3162      2.00000
     22     -15.2092      2.00000
     23     -14.8471      2.00000
     24     -14.8108      2.00000
     25     -14.6278      2.00000
     26     -14.5864      2.00000
     27      -3.6270      2.00000
     28      -3.6118      2.00000
     29      -3.4211      2.00000
     30      -3.3529      2.00000
     31      -3.2885      2.00000
     32      -3.2544      2.00000
     33      -2.8209      2.00000
     34      -2.8140      2.00000
     35      -2.5650      2.00000
     36      -2.5540      2.00000
     37      -2.2510      2.00000
     38      -1.9130      2.00000
     39      -1.8056      2.00000
     40      -1.3197      2.00000
     41      -1.2996      2.00000
     42      -1.1140      2.00000
     43      -0.7790      2.00000
     44      -0.5944      2.00000
     45      -0.4309      2.00000
     46      -0.3037      2.00000
     47      -0.2087      2.00000
     48      -0.1913      2.00000
     49      -0.0599      2.00000
     50      -0.0349      2.00000
     51       0.3799      2.00000
     52       0.4269      2.00000
     53       0.4591      2.00000
     54       0.7470      2.00000
     55       0.8909      2.00000
     56       1.0350      2.00000
     57       3.0241      0.00000
     58       3.1860      0.00000
     59       4.3696      0.00000
     60       4.3772      0.00000
     61       4.4772      0.00000
     62       4.6941      0.00000
     63       4.7167      0.00000
     64       4.9965      0.00000

 k-point    84 :      -0.0698    0.5000    0.0000
  band No.  band energies     occupation 
      1     -63.0029      2.00000
      2     -63.0010      2.00000
      3     -62.9912      2.00000
      4     -62.9894      2.00000
      5     -36.9974      2.00000
      6     -36.9942      2.00000
      7     -36.9930      2.00000
      8     -36.9866      2.00000
      9     -36.9465      2.00000
     10     -36.8959      2.00000
     11     -36.8641      2.00000
     12     -36.8395      2.00000
     13     -36.8360      2.00000
     14     -36.8098      2.00000
     15     -36.8014      2.00000
     16     -36.7986      2.00000
     17     -16.4800      2.00000
     18     -16.3677      2.00000
     19     -15.3872      2.00000
     20     -15.3513      2.00000
     21     -15.3168      2.00000
     22     -15.2114      2.00000
     23     -14.8511      2.00000
     24     -14.8147      2.00000
     25     -14.6277      2.00000
     26     -14.5862      2.00000
     27      -3.5775      2.00000
     28      -3.5617      2.00000
     29      -3.4336      2.00000
     30      -3.3709      2.00000
     31      -3.3002      2.00000
     32      -3.2672      2.00000
     33      -2.8220      2.00000
     34      -2.8195      2.00000
     35      -2.5670      2.00000
     36      -2.5617      2.00000
     37      -2.2552      2.00000
     38      -1.8344      2.00000
     39      -1.7430      2.00000
     40      -1.3167      2.00000
     41      -1.2802      2.00000
     42      -1.0535      2.00000
     43      -0.7893      2.00000
     44      -0.6208      2.00000
     45      -0.4089      2.00000
     46      -0.3500      2.00000
     47      -0.1963      2.00000
     48      -0.1745      2.00000
     49      -0.0030      2.00000
     50       0.0083      2.00000
     51       0.3178      2.00000
     52       0.3649      2.00000
     53       0.4299      2.00000
     54       0.7320      2.00000
     55       0.8848      2.00000
     56       1.0353      2.00000
     57       3.0123      0.00000
     58       3.1804      0.00000
     59       4.3748      0.00000
     60       4.3875      0.00000
     61       4.4760      0.00000
     62       4.6798      0.00000
     63       4.7181      0.00000
     64       5.0255      0.00000

 k-point    85 :      -0.0465    0.5000    0.0000
  band No.  band energies     occupation 
      1     -63.0030      2.00000
      2     -63.0012      2.00000
      3     -62.9912      2.00000
      4     -62.9893      2.00000
      5     -36.9976      2.00000
      6     -36.9944      2.00000
      7     -36.9931      2.00000
      8     -36.9867      2.00000
      9     -36.9466      2.00000
     10     -36.8959      2.00000
     11     -36.8619      2.00000
     12     -36.8367      2.00000
     13     -36.8363      2.00000
     14     -36.8107      2.00000
     15     -36.8000      2.00000
     16     -36.7975      2.00000
     17     -16.4969      2.00000
     18     -16.3849      2.00000
     19     -15.3952      2.00000
     20     -15.3582      2.00000
     21     -15.3172      2.00000
     22     -15.2129      2.00000
     23     -14.8540      2.00000
     24     -14.8176      2.00000
     25     -14.6277      2.00000
     26     -14.5860      2.00000
     27      -3.5313      2.00000
     28      -3.5196      2.00000
     29      -3.4427      2.00000
     30      -3.3927      2.00000
     31      -3.3087      2.00000
     32      -3.2803      2.00000
     33      -2.8235      2.00000
     34      -2.8228      2.00000
     35      -2.5686      2.00000
     36      -2.5674      2.00000
     37      -2.2582      2.00000
     38      -1.7705      2.00000
     39      -1.6944      2.00000
     40      -1.3203      2.00000
     41      -1.2668      2.00000
     42      -1.0005      2.00000
     43      -0.7943      2.00000
     44      -0.6554      2.00000
     45      -0.4126      2.00000
     46      -0.3628      2.00000
     47      -0.1763      2.00000
     48      -0.1758      2.00000
     49       0.0303      2.00000
     50       0.0579      2.00000
     51       0.2683      2.00000
     52       0.3130      2.00000
     53       0.4083      2.00000
     54       0.7176      2.00000
     55       0.8805      2.00000
     56       1.0356      2.00000
     57       3.0037      0.00000
     58       3.1770      0.00000
     59       4.3724      0.00000
     60       4.4013      0.00000
     61       4.4752      0.00000
     62       4.6684      0.00000
     63       4.7187      0.00000
     64       5.0481      0.00000

 k-point    86 :      -0.0233    0.5000    0.0000
  band No.  band energies     occupation 
      1     -63.0031      2.00000
      2     -63.0012      2.00000
      3     -62.9912      2.00000
      4     -62.9893      2.00000
      5     -36.9977      2.00000
      6     -36.9944      2.00000
      7     -36.9932      2.00000
      8     -36.9868      2.00000
      9     -36.9467      2.00000
     10     -36.8958      2.00000
     11     -36.8605      2.00000
     12     -36.8365      2.00000
     13     -36.8348      2.00000
     14     -36.8114      2.00000
     15     -36.7992      2.00000
     16     -36.7967      2.00000
     17     -16.5071      2.00000
     18     -16.3952      2.00000
     19     -15.4001      2.00000
     20     -15.3624      2.00000
     21     -15.3175      2.00000
     22     -15.2139      2.00000
     23     -14.8557      2.00000
     24     -14.8193      2.00000
     25     -14.6277      2.00000
     26     -14.5859      2.00000
     27      -3.4902      2.00000
     28      -3.4899      2.00000
     29      -3.4483      2.00000
     30      -3.4183      2.00000
     31      -3.3138      2.00000
     32      -3.2914      2.00000
     33      -2.8258      2.00000
     34      -2.8233      2.00000
     35      -2.5708      2.00000
     36      -2.5696      2.00000
     37      -2.2600      2.00000
     38      -1.7274      2.00000
     39      -1.6633      2.00000
     40      -1.3264      2.00000
     41      -1.2589      2.00000
     42      -0.9615      2.00000
     43      -0.7958      2.00000
     44      -0.6854      2.00000
     45      -0.4310      2.00000
     46      -0.3536      2.00000
     47      -0.1809      2.00000
     48      -0.1589      2.00000
     49       0.0534      2.00000
     50       0.0883      2.00000
     51       0.2361      2.00000
     52       0.2775      2.00000
     53       0.3948      2.00000
     54       0.7072      2.00000
     55       0.8778      2.00000
     56       1.0357      2.00000
     57       2.9985      0.00000
     58       3.1753      0.00000
     59       4.3708      0.00000
     60       4.4101      0.00000
     61       4.4748      0.00000
     62       4.6609      0.00000
     63       4.7189      0.00000
     64       5.0625      0.00000


--------------------------------------------------------------------------------------------------------


 soft charge-density along one line, spin component           1
         0         1         2         3         4         5         6         7         8         9
 total charge-density along one line
 
 pseudopotential strength for first ion, spin component:           1
 12.599 -15.362   0.026  -0.000  -0.000  -0.032   0.000   0.000
-15.362  18.754  -0.033   0.000   0.000   0.041  -0.000  -0.000
  0.026  -0.033  -8.843   0.000   0.000  10.696  -0.000  -0.000
 -0.000   0.000   0.000  -8.951  -0.000  -0.000  10.840   0.000
 -0.000   0.000   0.000  -0.000  -8.869  -0.000   0.000  10.731
 -0.032   0.041  10.696  -0.000  -0.000 -12.802   0.000   0.000
  0.000  -0.000  -0.000  10.840   0.000   0.000 -12.993  -0.000
  0.000  -0.000  -0.000   0.000  10.731   0.000  -0.000 -12.848
 total augmentation occupancy for first ion, spin component:           1
  2.533   0.304  -0.096   0.000   0.000  -0.035  -0.000   0.000
  0.304   0.058  -0.090   0.000   0.000  -0.013  -0.000   0.000
 -0.096  -0.090   2.024  -0.000  -0.000   0.175   0.000  -0.000
  0.000   0.000  -0.000   2.215  -0.000  -0.000   0.311  -0.000
  0.000   0.000  -0.000  -0.000   1.871  -0.000  -0.000   0.176
 -0.035  -0.013   0.175  -0.000  -0.000   0.020  -0.000  -0.000
 -0.000  -0.000   0.000   0.311  -0.000  -0.000   0.056  -0.000
  0.000   0.000  -0.000  -0.000   0.176  -0.000  -0.000   0.019


------------------------ aborting loop because EDIFF is reached ----------------------------------------


    CHARGE:  cpu time      0.4515: real time      0.4536
    FORLOC:  cpu time      0.0072: real time      0.0075
    FORNL :  cpu time      2.2865: real time      2.3020
    STRESS:  cpu time      8.5648: real time      8.6063
    FORCOR:  cpu time      0.0319: real time      0.0369
    FORHAR:  cpu time      0.0058: real time      0.0082
    MIXING:  cpu time      0.0018: real time      0.0018
    OFIELD:  cpu time      0.0001: real time      0.0018

  FORCE on cell =-STRESS in cart. coord.  units (eV):
  Direction    XX          YY          ZZ          XY          YZ          ZX
  --------------------------------------------------------------------------------------
  Alpha Z   387.22977   387.22977   387.22977
  Ewald   -1886.16582 -2826.67929 -2183.91312    -0.00000     0.00000     0.00000
  Hartree  1854.02154  1053.46972  1520.61281     0.00000    -0.00005    -0.00000
  E(xc)    -588.44952  -587.10177  -587.99015    -0.00000    -0.00000    -0.00000
  Local   -1815.15895  -104.46056 -1186.76971    -0.00000     0.00007     0.00000
  n-local  -360.12195  -368.16209  -362.08012     0.00000    -0.00000    -0.00000
  augment   359.24974   368.01064   359.78614    -0.00000     0.00000     0.00000
  Kinetic  2053.53138  2081.48032  2057.73865     0.00000     0.00001     0.00000
  Fock        0.00000     0.00000     0.00000     0.00000     0.00000     0.00000
  -------------------------------------------------------------------------------------
  Total       4.13619     3.78674     4.61427    -0.00000     0.00002     0.00000
  in kB      37.71324    34.52699    42.07233    -0.00000     0.00017     0.00000
  external pressure =       38.10 kB  Pullay stress =        0.00 kB


 VOLUME and BASIS-vectors are now :
 -----------------------------------------------------------------------------
  energy-cutoff  :      600.00
  volume of cell :      175.72
      direct lattice vectors                 reciprocal lattice vectors
     3.551749810  0.000000000  0.000000000     0.281551363  0.000000000  0.000000000
    -0.000000000  4.263357790  0.000000000     0.000000000  0.234556903  0.000000000
     0.000000000  0.000000000 11.604417110    -0.000000000 -0.000000000  0.086174083

  length of vectors
     3.551749810  4.263357790 11.604417110     0.281551363  0.234556903  0.086174083


 FORCES acting on ions
    electron-ion (+dipol)            ewald-force                    non-local-force                 convergence-correction
 -----------------------------------------------------------------------------------------------
   -.414E-08 -.136E+03 0.508E-05   0.148E-13 0.148E+03 -.137E-12   0.679E-08 -.121E+02 0.551E-05   -.357E-08 -.284E-04 -.840E-05
   -.103E-06 0.278E+03 0.113E+03   0.346E-13 -.305E+03 -.114E+03   -.704E-07 0.266E+02 0.730E+00   0.968E-07 0.818E-04 -.433E-04
   0.140E-07 -.636E+02 0.164E+03   -.108E-12 0.705E+02 -.168E+03   -.570E-07 -.681E+01 0.447E+01   0.106E-07 -.200E-04 -.303E-04
   -.339E-07 0.636E+02 -.164E+03   0.115E-12 -.705E+02 0.168E+03   0.388E-07 0.681E+01 -.447E+01   0.253E-07 0.311E-05 0.790E-05
   0.136E-06 -.278E+03 -.113E+03   -.339E-13 0.305E+03 0.114E+03   0.111E-06 -.266E+02 -.730E+00   -.170E-06 -.469E-04 0.560E-04
   0.472E-07 0.136E+03 0.163E-04   -.174E-13 -.148E+03 0.261E-12   0.180E-07 0.121E+02 0.345E-06   -.598E-07 0.935E-05 -.141E-04
   -.740E-07 -.278E+03 0.113E+03   -.154E-13 0.305E+03 -.114E+03   -.956E-07 -.266E+02 0.730E+00   0.953E-07 -.519E-04 -.547E-04
   -.497E-07 0.636E+02 0.164E+03   0.191E-13 -.705E+02 -.168E+03   -.549E-07 0.681E+01 0.447E+01   0.583E-07 0.630E-05 -.139E-04
   0.837E-08 -.636E+02 -.164E+03   -.418E-13 0.705E+02 0.168E+03   0.548E-07 -.681E+01 -.447E+01   -.287E-07 -.203E-04 0.564E-04
   0.727E-07 0.278E+03 -.113E+03   0.103E-13 -.305E+03 0.114E+03   0.824E-07 0.266E+02 -.730E+00   -.889E-07 0.913E-04 0.481E-04
   -.198E-06 -.311E+02 0.223E+03   0.179E-12 0.316E+02 -.225E+03   0.690E-06 -.863E+00 0.122E+01   0.252E-06 0.165E-03 -.118E-03
   0.139E-06 0.311E+02 -.223E+03   -.173E-12 -.316E+02 0.225E+03   -.709E-06 0.863E+00 -.122E+01   -.154E-06 -.127E-03 0.136E-03
   -.171E-06 0.311E+02 0.223E+03   0.288E-13 -.316E+02 -.225E+03   0.682E-06 0.863E+00 0.122E+01   0.225E-06 0.174E-04 -.188E-03
   0.157E-06 -.311E+02 -.223E+03   0.339E-14 0.316E+02 0.225E+03   -.693E-06 -.863E+00 -.122E+01   -.191E-06 0.759E-04 0.181E-03
 -----------------------------------------------------------------------------------------------
   -.591E-07 -.149E-03 -.894E-05   0.152E-13 -.711E-14 0.853E-13   0.443E-08 0.621E-05 0.408E-05   0.673E-07 0.157E-03 0.144E-04
 
 
 POSITION                                       TOTAL-FORCE (eV/Angst)
 -----------------------------------------------------------------------------------
     -0.00000      4.23626      0.00000        -0.000000      0.048905      0.000002
     -0.00000      2.19136      1.70218        -0.000000      0.257156     -0.053471
      1.77587      4.23845      2.11084        -0.000000      0.045343     -0.116770
     -0.00000      0.02491      3.69137         0.000000     -0.045346      0.116771
      1.77587      2.07200      4.10003         0.000000     -0.257163      0.053469
      1.77587      0.02710      5.80221         0.000000     -0.048908      0.000002
      1.77587      2.07200      7.50439        -0.000000     -0.257161     -0.053471
     -0.00000      0.02491      7.91305        -0.000000     -0.045342     -0.116768
      1.77587      4.23845      9.49357         0.000000      0.045339      0.116767
     -0.00000      2.19136      9.90223         0.000000      0.257165      0.053472
     -0.00000      3.78836      1.72093         0.000001     -0.384924     -0.026693
      1.77587      0.47499      4.08128        -0.000001      0.384928      0.026690
      1.77587      0.47499      7.52314         0.000001      0.384929     -0.026692
     -0.00000      3.78836      9.88349        -0.000001     -0.384920      0.026694
 -----------------------------------------------------------------------------------
    total drift:                                0.000000      0.000013      0.000010


--------------------------------------------------------------------------------------------------------



  FREE ENERGIE OF THE ION-ELECTRON SYSTEM (eV)
  ---------------------------------------------------
  free  energy   TOTEN  =      -117.23109520 eV

  energy  without entropy=     -117.23109520  energy(sigma->0) =     -117.23109520
 


--------------------------------------------------------------------------------------------------------


    POTLOK:  cpu time      0.1812: real time      0.2098


--------------------------------------------------------------------------------------------------------


     LOOP+:  cpu time    406.2302: real time    408.7324
 
 electron-phonon calculation
 ===========================

General:
  elph_run =  T
  elph_driver = 2
  elph_dry_run =  F
  elph_nbands =     57
  elph_nedos =   5001
  elph_kspacing =    0.500
  encutlr =   50.000

Phonon:
  elph_ignore_imag_phonons =  F
  ifc_asr =  1
  ifc_lr =  1

Matrix elements:
                   v d r p q s
  elph_decompose =  T  T  T  T  F  F
  elph_lr =  T
  elph_writemels =  F

Performance:
  elph_wf_cache_prefill =  T
  elph_wf_cache_mb = 1000.000
  elph_wf_redistribute =  F
  elph_wf_redistribute_opt =    0
  elph_kpar =    1
  elph_ncore =    1
  elph_useblas =  T
  elph_rotateprojectors =  F
  elph_wf_comm_opt =    1

Chemical potential:
  elph_ismear =   0
  elph_fermi_nedos =    501
  elph_selfen_temps =
       0.000
     100.000
     200.000
     300.000
     400.000
     500.000
  elph_selfen_carrier_den =
  elph_selfen_carrier_per_cell =
    .000E+00
  elph_selfen_mu =

Self-energy:
  elph_scattering_approx = 
  1 constant relaxation time approximation (SERTA)
  elph_selfen_fan =  F
  elph_selfen_dw =  F
  elph_selfen_fans =  F
  elph_selfen_dws =  F
  elph_selfen_band_start =     56
  elph_selfen_band_stop =     56
  elph_nbands_sum =
    -1
  elph_selfen_ikpt =
  elph_selfen_kpts =
       0.000   0.000   0.000
       0.465   0.500   0.000
       0.000   0.000   0.000
       0.000   0.000   0.000
       0.000   0.000   0.000
       0.000   0.000   0.000
  elph_selfen_nw =      1
  elph_selfen_wrange =    0.000
  elph_selfen_gaps =  F
  elph_selfen_delta =
       0.010
  elph_selfen_energy_window = [   0.000:   0.000]
  elph_selfen_g_skip =  F
  elph_selfen_imag_skip =  F
  elph_selfen_broad_tol = .000E+00
 
Transport:
  elph_transport =  F
  elph_transport_nedos_plot =     -1
  elph_transport_emin_plot = min(eigenvalues)
  elph_transport_emax_plot = max(eigenvalues)
  elph_transport_dfermi_tol = .100E-05
  elph_transport_driver =   2
  elph_transport_nedos =    501
  transport_relaxation_time = .100E-13
  elph_velocity_mode =   2
 
 KPOINTS_ELPH 
 --------------
 
 kpoints in the ibz:           2
 kpoints in the fbz:          86
 
 Smith normal form
 D = P R Q
 
 D:
           1
           1
          86
 
 P:
           1           1           0
          42          43           1
         -42         -43           0
 
Chemical potential calculation:
===============================

elph_ismear=  0
elph_selfen_carrier_per_cell=
       0.000
elph_selfen_temps=
       0.000
     100.000
     200.000
     300.000
     400.000
     500.000

 Fermi energy:         2.7264060037 eV (dense k-point grid)
computed at a temperature of   116.044475 K or sigma=    0.010000 eV

                   Number of electrons per cell
                   ----------------------------
T=      0.00000000   112.00000000
T=    100.00000000   112.00000000
T=    200.00000000   112.00000000
T=    300.00000000   112.00000000
T=    400.00000000   112.00000000
T=    500.00000000   112.00000000
                   ----------------------------
                       Chemical potential
                   ----------------------------
T=      0.00000000     2.72640600
T=    100.00000000     2.72640600
T=    200.00000000     2.72640600
T=    300.00000000     1.66624977
T=    400.00000000     1.66624977
T=    500.00000000     1.66624977
                   ----------------------------

 Band structure
 --------------
                        spin independent
 val. band max:               1.153761         
 cond. band min:              2.808407         
 fundamental gap:             1.654647         
 VBM @ kpoint:       0.4651   0.5000   0.0000  
 CBM @ kpoint:       0.0000   0.0000   0.0000  

 lower band:                  1.153761         
 upper band:                  3.312556         
 direct gap:                  2.158795         
 @ kpoint:           0.4651   0.5000   0.0000  

  SELFEN_KPTS               IKPT  MATCHED TO
  0.0000  0.0000  0.0000->     1  0.0000  0.0000  0.0000
  0.4651  0.5000  0.0000->     2  0.4651  0.5000  0.0000
Electron self-energy accumulator N =  1
----------------------------------
 Band range:               [      56:      56]
 Number of bands to sum over:    64
 Scattering approximation: constant relaxation time approximation (SERTA)
 Static self-energy:  F
 Complex imaginary shift (delta): 0.010
 Chemical potentials mu(T):
     Temperature (K)             mu (eV)
          0.00000000          2.72640600
        100.00000000          2.72640600
        200.00000000          2.72640600
        300.00000000          1.66624977
        400.00000000          1.66624977
        500.00000000          1.66624977
 Number of selected k-points at which to compute the self-energy: [     2 /      2]
 Selected bands and k-points at which to compute the self-energy:
         1   2   3   4   5   6   7   8   9  10  11  12  13  14  15  16  17  18  19  20  21  22  23  24  25  26  27  28  29  30  31  32  33  34  35  36  37  38  39  40  41  42  43  44  45  46  47  48  49  50  51  52  53  54  55  56
     1   T   T   T   T   T   T   T   T   T   T   T   T   T   T   T   T   T   T   T   T   T   T   T   T   T   T   T   T   T   T   T   T   T   T   T   T   T   T   T   T   T   T   T   T   T   T   T   T   T   T   T   T   T   T   T   T
     2   T   T   T   T   T   T   T   T   T   T   T   T   T   T   T   T   T   T   T   T   T   T   T   T   T   T   T   T   T   T   T   T   T   T   T   T   T   T   T   T   T   T   T   T   T   T   T   T   T   T   T   T   T   T   T   T
 
 
 Structural information
 --------------------------
 
 Supercell lattice vectors (SP)
    7.10349962    0.00000000    0.00000000 (A1)
   -0.00000000    8.52671558    0.00000000 (A2)
    0.00000000    0.00000000   23.20883422 (A3)
 
 Supercell atoms, in reduced coordinates of the supercell
    0.00000000    0.49682149    0.00000000  1
    0.00000000    0.25699886    0.07334200  1
    0.25000000    0.49707878    0.09094999  1
    0.00000000    0.00292122    0.15905001  1
    0.25000000    0.24300114    0.17665800  1
    0.25000000    0.00317851    0.25000000  1
    0.25000000    0.24300114    0.32334200  1
    0.00000000    0.00292122    0.34094999  1
    0.25000000    0.49707878    0.40905001  1
    0.00000000    0.25699886    0.42665800  1
    0.00000000    0.44429352    0.07414982  1
    0.25000000    0.05570648    0.17585018  1
    0.25000000    0.05570648    0.32414982  1
    0.00000000    0.44429352    0.42585018  1
    0.00000000    0.49682149    0.50000000  1
    0.00000000    0.25699886    0.57334200  1
    0.25000000    0.49707878    0.59094999  1
    0.00000000    0.00292122    0.65905001  1
    0.25000000    0.24300114    0.67665800  1
    0.25000000    0.00317851    0.75000000  1
    0.25000000    0.24300114    0.82334200  1
    0.00000000    0.00292122    0.84094999  1
    0.25000000    0.49707878    0.90905001  1
    0.00000000    0.25699886    0.92665800  1
    0.00000000    0.44429352    0.57414982  1
    0.25000000    0.05570648    0.67585018  1
    0.25000000    0.05570648    0.82414982  1
    0.00000000    0.44429352    0.92585018  1
    0.00000000    0.99682149    0.00000000  1
    0.00000000    0.75699886    0.07334200  1
    0.25000000    0.99707878    0.09094999  1
    0.00000000    0.50292122    0.15905001  1
    0.25000000    0.74300114    0.17665800  1
    0.25000000    0.50317851    0.25000000  1
    0.25000000    0.74300114    0.32334200  1
    0.00000000    0.50292122    0.34094999  1
    0.25000000    0.99707878    0.40905001  1
    0.00000000    0.75699886    0.42665800  1
    0.00000000    0.94429352    0.07414982  1
    0.25000000    0.55570648    0.17585018  1
    0.25000000    0.55570648    0.32414982  1
    0.00000000    0.94429352    0.42585018  1
    0.00000000    0.99682149    0.50000000  1
    0.00000000    0.75699886    0.57334200  1
    0.25000000    0.99707878    0.59094999  1
    0.00000000    0.50292122    0.65905001  1
    0.25000000    0.74300114    0.67665800  1
    0.25000000    0.50317851    0.75000000  1
    0.25000000    0.74300114    0.82334200  1
    0.00000000    0.50292122    0.84094999  1
    0.25000000    0.99707878    0.90905001  1
    0.00000000    0.75699886    0.92665800  1
    0.00000000    0.94429352    0.57414982  1
    0.25000000    0.55570648    0.67585018  1
    0.25000000    0.55570648    0.82414982  1
    0.00000000    0.94429352    0.92585018  1
    0.50000000    0.49682149    0.00000000  1
    0.50000000    0.25699886    0.07334200  1
    0.75000000    0.49707878    0.09094999  1
    0.50000000    0.00292122    0.15905001  1
    0.75000000    0.24300114    0.17665800  1
    0.75000000    0.00317851    0.25000000  1
    0.75000000    0.24300114    0.32334200  1
    0.50000000    0.00292122    0.34094999  1
    0.75000000    0.49707878    0.40905001  1
    0.50000000    0.25699886    0.42665800  1
    0.50000000    0.44429352    0.07414982  1
    0.75000000    0.05570648    0.17585018  1
    0.75000000    0.05570648    0.32414982  1
    0.50000000    0.44429352    0.42585018  1
    0.50000000    0.49682149    0.50000000  1
    0.50000000    0.25699886    0.57334200  1
    0.75000000    0.49707878    0.59094999  1
    0.50000000    0.00292122    0.65905001  1
    0.75000000    0.24300114    0.67665800  1
    0.75000000    0.00317851    0.75000000  1
    0.75000000    0.24300114    0.82334200  1
    0.50000000    0.00292122    0.84094999  1
    0.75000000    0.49707878    0.90905001  1
    0.50000000    0.25699886    0.92665800  1
    0.50000000    0.44429352    0.57414982  2
    0.75000000    0.05570648    0.67585018  2
    0.75000000    0.05570648    0.82414982  2
    0.50000000    0.44429352    0.92585018  2
    0.50000000    0.99682149    0.00000000  2
    0.50000000    0.75699886    0.07334200  2
    0.75000000    0.99707878    0.09094999  2
    0.50000000    0.50292122    0.15905001  2
    0.75000000    0.74300114    0.17665800  2
    0.75000000    0.50317851    0.25000000  2
    0.75000000    0.74300114    0.32334200  2
    0.50000000    0.50292122    0.34094999  2
    0.75000000    0.99707878    0.40905001  2
    0.50000000    0.75699886    0.42665800  2
    0.50000000    0.94429352    0.07414982  2
    0.75000000    0.55570648    0.17585018  2
    0.75000000    0.55570648    0.32414982  2
    0.50000000    0.94429352    0.42585018  2
    0.50000000    0.99682149    0.50000000  2
    0.50000000    0.75699886    0.57334200  2
    0.75000000    0.99707878    0.59094999  2
    0.50000000    0.50292122    0.65905001  2
    0.75000000    0.74300114    0.67665800  2
    0.75000000    0.50317851    0.75000000  2
    0.75000000    0.74300114    0.82334200  2
    0.50000000    0.50292122    0.84094999  2
    0.75000000    0.99707878    0.90905001  2
    0.50000000    0.75699886    0.92665800  2
    0.50000000    0.94429352    0.57414982  2
    0.75000000    0.55570648    0.67585018  2
    0.75000000    0.55570648    0.82414982  2
    0.50000000    0.94429352    0.92585018  2
 
 Primitive lattice vectors (PRIM) = POSCAR vectors
    3.55174981    0.00000000    0.00000000 (a1)
    0.00000000    4.26335779    0.00000000 (a2)
    0.00000000    0.00000000   11.60441711 (a3)
 
 Derivative centers, in reduced coordinates of the PRIMITIVE CELL = POSCAR atoms
  [l]
    0.00000000    0.99364297    0.00000000  1
    0.00000000    0.51399772    0.14668400  1
    0.50000000    0.99415756    0.18189999  1
    0.00000000    1.00584244    0.31810001  1
    0.50000000    1.48600228    0.35331600  1
    0.50000000    1.00635703    0.50000000  1
    0.50000000    1.48600228    1.64668400  1
    0.00000000    1.00584244    1.68189999  1
    0.50000000    0.99415756    1.81810001  1
    0.00000000    0.51399772    1.85331600  1
    0.00000000    0.88858704    0.14829965  2
    0.50000000    1.11141296    0.35170035  2
    0.50000000    1.11141296    1.64829965  2
    0.00000000    0.88858704    1.85170035  2
 
 Coordinates transformation matrix M from primitive cell (PRIM) to supercell (SP
 )
   (x1_sp,x2_sp,x3_sp) = M (x1_prim,x2_prim,x3_prim)
            (A1 A2 A3) = (a1 a2 a3) M^{-1}
    0.50000000    0.00000000    0.00000000
    0.00000000    0.50000000    0.00000000
    0.00000000    0.00000000    0.50000000
 
 Coordinates transformation matrix M^{-1} from the supercell (SP) to primitive c
 ell (PRIM)
   (x1_prim,x2_prim,x3_prim) = M^{-1} (x1_sp,x2_sp,x3_sp)
                  (a1 a2 a3) = (A1 A2 A3) M
    2.00000000    0.00000000    0.00000000
    0.00000000    2.00000000    0.00000000
    0.00000000    0.00000000    2.00000000
 
   Notation:
   (x1,x2,x3) = (x1  x2  x3)^T   (column vector)
   (a1 a2 a3) = (a1_1 a2_1 a3_1)
                (a1_2 a2_2 a3_2)
                (a1_3 a2_3 a3_3)
 

 total amount of memory used by VASP MPI-rank0  1067535. kBytes
=======================================================================

   base                                    :      30000. kBytes
   nonl-proj                               :       4736. kBytes
   fftplans                                :       4331. kBytes
   grid                                    :       5446. kBytes
   one-center                              :        217. kBytes
   wavefun                                 :      17121. kBytes
   elph_w_dense                            :          4. kBytes
   dproj                                   :         38. kBytes
   elph_accumulator_selfen                 :          0. kBytes
   ifc_lattice_atoms                       :         66. kBytes
   elph_phonon_freqs                       :          0. kBytes
   pot_grid                                :      18579. kBytes
   pot_dvdu                                :     520224. kBytes
   pot_lattice_points                      :     352840. kBytes
   elph_cache                              :       1703. kBytes
   elph_rwavefun                           :     100638. kBytes
   wf_cache                                :      11592. kBytes
 
Electron self-energy accumulator N=  1
 T=       0. K
 ispin  ikpt iband       KS eV  re(Fan) eV  im(Fan) eV       DW eV   Fan+DW eV
     1     1    56    0.428167    0.000000    0.000000    0.000000    0.000000
     1     2    56    1.153761    0.000000    0.000000    0.000000    0.000000
 
 T=     100. K
 ispin  ikpt iband       KS eV  re(Fan) eV  im(Fan) eV       DW eV   Fan+DW eV
     1     1    56    0.428167    0.000000    0.000000    0.000000    0.000000
     1     2    56    1.153761    0.000000    0.000000    0.000000    0.000000
 
 T=     200. K
 ispin  ikpt iband       KS eV  re(Fan) eV  im(Fan) eV       DW eV   Fan+DW eV
     1     1    56    0.428167    0.000000    0.000000    0.000000    0.000000
     1     2    56    1.153761    0.000000    0.000000    0.000000    0.000000
 
 T=     300. K
 ispin  ikpt iband       KS eV  re(Fan) eV  im(Fan) eV       DW eV   Fan+DW eV
     1     1    56    0.428167    0.000000    0.000000    0.000000    0.000000
     1     2    56    1.153761    0.000000    0.000000    0.000000    0.000000
 
 T=     400. K
 ispin  ikpt iband       KS eV  re(Fan) eV  im(Fan) eV       DW eV   Fan+DW eV
     1     1    56    0.428167    0.000000    0.000000    0.000000    0.000000
     1     2    56    1.153761    0.000000    0.000000    0.000000    0.000000
 
 T=     500. K
 ispin  ikpt iband       KS eV  re(Fan) eV  im(Fan) eV       DW eV   Fan+DW eV
     1     1    56    0.428167    0.000000    0.000000    0.000000    0.000000
     1     2    56    1.153761    0.000000    0.000000    0.000000    0.000000
 
 
------------------------ end of electron-phonon driver reached -----------------------------------------
 
    4ORBIT:  cpu time      0.0000: real time      0.0000

 total amount of memory used by VASP MPI-rank0   204678. kBytes
=======================================================================

   base                                    :      30000. kBytes
   nonl-proj                               :     147952. kBytes
   fftplans                                :       4331. kBytes
   grid                                    :       5446. kBytes
   one-center                              :        217. kBytes
   wavefun                                 :      16732. kBytes
   elph_w_dense                            :          0. kBytes
   dproj                                   :          0. kBytes
   elph_accumulator_selfen                 :          0. kBytes
   ifc_lattice_atoms                       :          0. kBytes
   elph_phonon_freqs                       :          0. kBytes
   pot_grid                                :          0. kBytes
   pot_dvdu                                :          0. kBytes
   pot_lattice_points                      :          0. kBytes
   elph_cache                              :          0. kBytes
   elph_rwavefun                           :          0. kBytes
   wf_cache                                :          0. kBytes
 
  
  
 General timing and accounting informations for this job:
 ========================================================
  
                  Total CPU time used (sec):      599.766
                            User time (sec):      596.510
                          System time (sec):        3.256
                         Elapsed time (sec):      615.072
  
                   Maximum memory used (kb):     1499316.
                   Average memory used (kb):          N/A
  
                          Minor page faults:       285428
                          Major page faults:            8
                 Voluntary context switches:        12217
