   14   14    1    1
  0.1255132E+02  0.3551750E-09  0.4263358E-09  0.1160442E-08  0.5000000E-15
  1.000000000000000E-004
  CAR 
 V2O5 effective mass                     
    112     54    128
 
 -0.5652785E-02 -0.6785345E-02 -0.1846900E-01  0.1851852E-01
    1      -63.006060   1.000000
    2      -63.004174   1.000000
    3      -62.994042   1.000000
    4      -62.992155   1.000000
    5      -36.993568   1.000000
    6      -36.990145   1.000000
    7      -36.986017   1.000000
    8      -36.979638   1.000000
    9      -36.948694   1.000000
   10      -36.898201   1.000000
   11      -36.862083   1.000000
   12      -36.840509   1.000000
   13      -36.838165   1.000000
   14      -36.813775   1.000000
   15      -36.802689   1.000000
   16      -36.800258   1.000000
   17      -16.648725   1.000000
   18      -16.517278   1.000000
   19      -15.535069   1.000000
   20      -15.417947   1.000000
   21      -15.330807   1.000000
   22      -15.258083   1.000000
   23      -14.892766   1.000000
   24      -14.873260   1.000000
   25      -14.741764   1.000000
   26      -14.693659   1.000000
   27       -3.432303   1.000000
   28       -3.405568   1.000000
   29       -3.387401   1.000000
   30       -3.244781   1.000000
   31       -3.088270   1.000000
   32       -2.506934   1.000000
   33       -1.875227   1.000000
   34       -1.812350   1.000000
   35       -1.713577   1.000000
   36       -1.562073   1.000000
   37       -1.217183   1.000000
   38       -1.191670   1.000000
   39       -1.067132   1.000000
   40       -0.950106   1.000000
   41       -0.889068   1.000000
   42       -0.859853   1.000000
   43       -0.851206   1.000000
   44       -0.844506   1.000000
   45       -0.723488   1.000000
   46       -0.681519   1.000000
   47       -0.657805   1.000000
   48       -0.500164   1.000000
   49       -0.362830   1.000000
   50       -0.005481   1.000000
   51        0.022150   1.000000
   52        0.044429   1.000000
   53        0.109282   1.000000
   54        0.289568   1.000000
   55        0.400615   1.000000
   56        0.423335   1.000000
   57        2.808035   0.000000
   58        2.978881   0.000000
   59        4.225985   0.000000
   60        4.242169   0.000000
   61        4.310096   0.000000
   62        4.477661   0.000000
   63        4.660542   0.000000
   64        4.844043   0.000000
   65        5.174758   0.000000
   66        5.405296   0.000000
   67        5.452416   0.000000
   68        5.593287   0.000000
   69        5.722952   0.000000
   70        5.869142   0.000000
   71        6.204130   0.000000
   72        6.284812   0.000000
   73        6.530574   0.000000
   74        6.608028   0.000000
   75        6.936918   0.000000
   76        7.093709   0.000000
   77        8.702195   0.000000
   78        9.842971   0.000000
   79       10.943960   0.000000
   80       13.420574   0.000000
   81       13.595522   0.000000
   82       15.384978   0.000000
   83       15.458041   0.000000
   84       16.107436   0.000000
   85       16.539855   0.000000
   86       16.663425   0.000000
   87       16.845551   0.000000
   88       17.022662   0.000000
   89       17.154228   0.000000
   90       17.789220   0.000000
   91       17.936872   0.000000
   92       18.114859   0.000000
   93       18.391320   0.000000
   94       19.143202   0.000000
   95       19.492914   0.000000
   96       19.605810   0.000000
   97       19.869146   0.000000
   98       19.913060   0.000000
   99       19.917078   0.000000
  100       20.024533   0.000000
  101       20.268259   0.000000
  102       20.444210   0.000000
  103       20.917754   0.000000
  104       21.410389   0.000000
  105       21.484761   0.000000
  106       21.806001   0.000000
  107       23.181429   0.000000
  108       23.356119   0.000000
  109       24.022855   0.000000
  110       24.170903   0.000000
  111       24.875820   0.000000
  112       25.048755   0.000000
  113       25.073203   0.000000
  114       25.247310   0.000000
  115       25.936163   0.000000
  116       26.036108   0.000000
  117       26.422321   0.000000
  118       26.665063   0.000000
  119       27.104942   0.000000
  120       27.161953   0.000000
  121       27.346795   0.000000
  122       27.457763   0.000000
  123       27.969082   0.000000
  124       28.190130   0.000000
  125       28.261508   0.000000
  126       28.414583   0.000000
  127       28.520154   0.000000
  128       28.979310   0.000000
 
 -0.5652785E-02 -0.6785345E-02  0.0000000E+00  0.1851852E-01
    1      -63.006061   1.000000
    2      -63.004172   1.000000
    3      -62.994044   1.000000
    4      -62.992154   1.000000
    5      -36.993571   1.000000
    6      -36.990143   1.000000
    7      -36.986021   1.000000
    8      -36.979630   1.000000
    9      -36.948727   1.000000
   10      -36.898106   1.000000
   11      -36.862179   1.000000
   12      -36.840511   1.000000
   13      -36.838165   1.000000
   14      -36.813750   1.000000
   15      -36.802692   1.000000
   16      -36.800256   1.000000
   17      -16.648834   1.000000
   18      -16.517150   1.000000
   19      -15.535212   1.000000
   20      -15.417899   1.000000
   21      -15.330841   1.000000
   22      -15.257993   1.000000
   23      -14.892769   1.000000
   24      -14.873225   1.000000
   25      -14.741842   1.000000
   26      -14.693633   1.000000
   27       -3.432351   1.000000
   28       -3.405584   1.000000
   29       -3.387386   1.000000
   30       -3.244069   1.000000
   31       -3.089234   1.000000
   32       -2.506378   1.000000
   33       -1.875553   1.000000
   34       -1.812609   1.000000
   35       -1.713523   1.000000
   36       -1.562085   1.000000
   37       -1.217203   1.000000
   38       -1.191647   1.000000
   39       -1.065902   1.000000
   40       -0.951440   1.000000
   41       -0.887907   1.000000
   42       -0.859876   1.000000
   43       -0.852045   1.000000
   44       -0.844570   1.000000
   45       -0.723447   1.000000
   46       -0.681529   1.000000
   47       -0.657776   1.000000
   48       -0.499495   1.000000
   49       -0.363475   1.000000
   50       -0.005506   1.000000
   51        0.022173   1.000000
   52        0.045701   1.000000
   53        0.108094   1.000000
   54        0.289344   1.000000
   55        0.400727   1.000000
   56        0.423412   1.000000
   57        2.807901   0.000000
   58        2.979036   0.000000
   59        4.225903   0.000000
   60        4.241923   0.000000
   61        4.310155   0.000000
   62        4.477472   0.000000
   63        4.660657   0.000000
   64        4.845756   0.000000
   65        5.172991   0.000000
   66        5.405271   0.000000
   67        5.452490   0.000000
   68        5.593145   0.000000
   69        5.723044   0.000000
   70        5.868861   0.000000
   71        6.206649   0.000000
   72        6.284703   0.000000
   73        6.529014   0.000000
   74        6.607392   0.000000
   75        6.937108   0.000000
   76        7.093920   0.000000
   77        8.701610   0.000000
   78        9.845171   0.000000
   79       10.941331   0.000000
   80       13.439546   0.000000
   81       13.576787   0.000000
   82       15.384391   0.000000
   83       15.459046   0.000000
   84       16.107242   0.000000
   85       16.541025   0.000000
   86       16.666866   0.000000
   87       16.845360   0.000000
   88       17.018551   0.000000
   89       17.154218   0.000000
   90       17.788394   0.000000
   91       17.937387   0.000000
   92       18.114653   0.000000
   93       18.391475   0.000000
   94       19.143916   0.000000
   95       19.492906   0.000000
   96       19.606048   0.000000
   97       19.869061   0.000000
   98       19.912999   0.000000
   99       19.917127   0.000000
  100       20.024222   0.000000
  101       20.268397   0.000000
  102       20.453193   0.000000
  103       20.906502   0.000000
  104       21.411954   0.000000
  105       21.481925   0.000000
  106       21.806468   0.000000
  107       23.181640   0.000000
  108       23.361118   0.000000
  109       24.025862   0.000000
  110       24.165627   0.000000
  111       24.875691   0.000000
  112       25.051620   0.000000
  113       25.071063   0.000000
  114       25.246601   0.000000
  115       25.949365   0.000000
  116       26.021333   0.000000
  117       26.425715   0.000000
  118       26.663262   0.000000
  119       27.104105   0.000000
  120       27.158881   0.000000
  121       27.346576   0.000000
  122       27.458417   0.000000
  123       27.971189   0.000000
  124       28.200239   0.000000
  125       28.259713   0.000000
  126       28.416758   0.000000
  127       28.519045   0.000000
  128       28.970620   0.000000
 
 -0.5652785E-02 -0.6785345E-02  0.1846900E-01  0.1851852E-01
    1      -63.006060   1.000000
    2      -63.004174   1.000000
    3      -62.994042   1.000000
    4      -62.992155   1.000000
    5      -36.993568   1.000000
    6      -36.990145   1.000000
    7      -36.986017   1.000000
    8      -36.979638   1.000000
    9      -36.948694   1.000000
   10      -36.898201   1.000000
   11      -36.862083   1.000000
   12      -36.840509   1.000000
   13      -36.838165   1.000000
   14      -36.813775   1.000000
   15      -36.802689   1.000000
   16      -36.800258   1.000000
   17      -16.648725   1.000000
   18      -16.517278   1.000000
   19      -15.535069   1.000000
   20      -15.417947   1.000000
   21      -15.330807   1.000000
   22      -15.258083   1.000000
   23      -14.892766   1.000000
   24      -14.873260   1.000000
   25      -14.741764   1.000000
   26      -14.693659   1.000000
   27       -3.432303   1.000000
   28       -3.405568   1.000000
   29       -3.387401   1.000000
   30       -3.244781   1.000000
   31       -3.088270   1.000000
   32       -2.506934   1.000000
   33       -1.875227   1.000000
   34       -1.812350   1.000000
   35       -1.713577   1.000000
   36       -1.562073   1.000000
   37       -1.217183   1.000000
   38       -1.191670   1.000000
   39       -1.067132   1.000000
   40       -0.950106   1.000000
   41       -0.889068   1.000000
   42       -0.859853   1.000000
   43       -0.851206   1.000000
   44       -0.844506   1.000000
   45       -0.723488   1.000000
   46       -0.681519   1.000000
   47       -0.657805   1.000000
   48       -0.500164   1.000000
   49       -0.362830   1.000000
   50       -0.005481   1.000000
   51        0.022150   1.000000
   52        0.044429   1.000000
   53        0.109282   1.000000
   54        0.289568   1.000000
   55        0.400615   1.000000
   56        0.423335   1.000000
   57        2.808035   0.000000
   58        2.978881   0.000000
   59        4.225985   0.000000
   60        4.242169   0.000000
   61        4.310096   0.000000
   62        4.477661   0.000000
   63        4.660542   0.000000
   64        4.844043   0.000000
   65        5.174758   0.000000
   66        5.405296   0.000000
   67        5.452416   0.000000
   68        5.593287   0.000000
   69        5.722952   0.000000
   70        5.869142   0.000000
   71        6.204130   0.000000
   72        6.284812   0.000000
   73        6.530574   0.000000
   74        6.608028   0.000000
   75        6.936918   0.000000
   76        7.093709   0.000000
   77        8.702195   0.000000
   78        9.842971   0.000000
   79       10.943960   0.000000
   80       13.420574   0.000000
   81       13.595522   0.000000
   82       15.384978   0.000000
   83       15.458041   0.000000
   84       16.107436   0.000000
   85       16.539855   0.000000
   86       16.663425   0.000000
   87       16.845551   0.000000
   88       17.022662   0.000000
   89       17.154228   0.000000
   90       17.789220   0.000000
   91       17.936872   0.000000
   92       18.114859   0.000000
   93       18.391320   0.000000
   94       19.143202   0.000000
   95       19.492914   0.000000
   96       19.605810   0.000000
   97       19.869146   0.000000
   98       19.913060   0.000000
   99       19.917078   0.000000
  100       20.024533   0.000000
  101       20.268259   0.000000
  102       20.444210   0.000000
  103       20.917754   0.000000
  104       21.410389   0.000000
  105       21.484761   0.000000
  106       21.806001   0.000000
  107       23.181429   0.000000
  108       23.356119   0.000000
  109       24.022855   0.000000
  110       24.170903   0.000000
  111       24.875820   0.000000
  112       25.048755   0.000000
  113       25.073203   0.000000
  114       25.247310   0.000000
  115       25.936163   0.000000
  116       26.036108   0.000000
  117       26.422321   0.000000
  118       26.665063   0.000000
  119       27.104942   0.000000
  120       27.161953   0.000000
  121       27.346795   0.000000
  122       27.457763   0.000000
  123       27.969082   0.000000
  124       28.190130   0.000000
  125       28.261508   0.000000
  126       28.414583   0.000000
  127       28.520154   0.000000
  128       28.979310   0.000000
 
 -0.5652785E-02  0.0000000E+00 -0.1846900E-01  0.1851852E-01
    1      -63.006060   1.000000
    2      -63.004174   1.000000
    3      -62.994042   1.000000
    4      -62.992155   1.000000
    5      -36.993565   1.000000
    6      -36.990143   1.000000
    7      -36.986014   1.000000
    8      -36.979635   1.000000
    9      -36.948694   1.000000
   10      -36.898201   1.000000
   11      -36.862083   1.000000
   12      -36.840509   1.000000
   13      -36.838166   1.000000
   14      -36.813775   1.000000
   15      -36.802689   1.000000
   16      -36.800257   1.000000
   17      -16.648784   1.000000
   18      -16.517333   1.000000
   19      -15.535131   1.000000
   20      -15.417985   1.000000
   21      -15.330810   1.000000
   22      -15.258098   1.000000
   23      -14.892788   1.000000
   24      -14.873261   1.000000
   25      -14.741815   1.000000
   26      -14.693678   1.000000
   27       -3.432283   1.000000
   28       -3.405534   1.000000
   29       -3.387368   1.000000
   30       -3.244751   1.000000
   31       -3.088206   1.000000
   32       -2.506854   1.000000
   33       -1.872946   1.000000
   34       -1.812836   1.000000
   35       -1.712399   1.000000
   36       -1.561354   1.000000
   37       -1.216761   1.000000
   38       -1.191298   1.000000
   39       -1.066963   1.000000
   40       -0.950495   1.000000
   41       -0.888175   1.000000
   42       -0.859473   1.000000
   43       -0.851585   1.000000
   44       -0.844822   1.000000
   45       -0.724055   1.000000
   46       -0.681829   1.000000
   47       -0.658225   1.000000
   48       -0.501108   1.000000
   49       -0.362642   1.000000
   50       -0.005537   1.000000
   51        0.022136   1.000000
   52        0.044248   1.000000
   53        0.109225   1.000000
   54        0.289147   1.000000
   55        0.400594   1.000000
   56        0.423072   1.000000
   57        2.807955   0.000000
   58        2.978784   0.000000
   59        4.225936   0.000000
   60        4.242012   0.000000
   61        4.310030   0.000000
   62        4.477614   0.000000
   63        4.660441   0.000000
   64        4.843833   0.000000
   65        5.174789   0.000000
   66        5.405258   0.000000
   67        5.452391   0.000000
   68        5.593261   0.000000
   69        5.722926   0.000000
   70        5.868572   0.000000
   71        6.203950   0.000000
   72        6.284387   0.000000
   73        6.530542   0.000000
   74        6.607607   0.000000
   75        6.936579   0.000000
   76        7.093566   0.000000
   77        8.701468   0.000000
   78        9.842630   0.000000
   79       10.943426   0.000000
   80       13.420295   0.000000
   81       13.595203   0.000000
   82       15.388618   0.000000
   83       15.457635   0.000000
   84       16.106339   0.000000
   85       16.569351   0.000000
   86       16.634131   0.000000
   87       16.844392   0.000000
   88       17.023911   0.000000
   89       17.154215   0.000000
   90       17.789698   0.000000
   91       17.936207   0.000000
   92       18.114212   0.000000
   93       18.391019   0.000000
   94       19.142938   0.000000
   95       19.493136   0.000000
   96       19.606162   0.000000
   97       19.871091   0.000000
   98       19.915469   0.000000
   99       19.917776   0.000000
  100       20.022661   0.000000
  101       20.268014   0.000000
  102       20.442537   0.000000
  103       20.917266   0.000000
  104       21.410976   0.000000
  105       21.485104   0.000000
  106       21.805365   0.000000
  107       23.181007   0.000000
  108       23.357087   0.000000
  109       24.022776   0.000000
  110       24.170847   0.000000
  111       24.873790   0.000000
  112       25.051836   0.000000
  113       25.069106   0.000000
  114       25.248215   0.000000
  115       25.936541   0.000000
  116       26.035158   0.000000
  117       26.422427   0.000000
  118       26.665096   0.000000
  119       27.105436   0.000000
  120       27.173305   0.000000
  121       27.339475   0.000000
  122       27.459080   0.000000
  123       27.967250   0.000000
  124       28.189902   0.000000
  125       28.262119   0.000000
  126       28.414053   0.000000
  127       28.521016   0.000000
  128       28.979037   0.000000
 
 -0.5652785E-02  0.0000000E+00  0.0000000E+00  0.1851852E-01
    1      -63.006061   1.000000
    2      -63.004172   1.000000
    3      -62.994044   1.000000
    4      -62.992154   1.000000
    5      -36.993568   1.000000
    6      -36.990139   1.000000
    7      -36.986017   1.000000
    8      -36.979626   1.000000
    9      -36.948726   1.000000
   10      -36.898106   1.000000
   11      -36.862179   1.000000
   12      -36.840511   1.000000
   13      -36.838162   1.000000
   14      -36.813750   1.000000
   15      -36.802692   1.000000
   16      -36.800256   1.000000
   17      -16.648888   1.000000
   18      -16.517204   1.000000
   19      -15.535274   1.000000
   20      -15.417912   1.000000
   21      -15.330844   1.000000
   22      -15.258005   1.000000
   23      -14.892791   1.000000
   24      -14.873215   1.000000
   25      -14.741892   1.000000
   26      -14.693652   1.000000
   27       -3.432331   1.000000
   28       -3.405550   1.000000
   29       -3.387349   1.000000
   30       -3.244039   1.000000
   31       -3.089171   1.000000
   32       -2.506297   1.000000
   33       -1.873272   1.000000
   34       -1.813094   1.000000
   35       -1.712345   1.000000
   36       -1.561365   1.000000
   37       -1.216781   1.000000
   38       -1.191274   1.000000
   39       -1.065727   1.000000
   40       -0.951838   1.000000
   41       -0.886974   1.000000
   42       -0.859494   1.000000
   43       -0.852458   1.000000
   44       -0.844888   1.000000
   45       -0.724013   1.000000
   46       -0.681839   1.000000
   47       -0.658197   1.000000
   48       -0.500442   1.000000
   49       -0.363283   1.000000
   50       -0.005562   1.000000
   51        0.022159   1.000000
   52        0.045516   1.000000
   53        0.108041   1.000000
   54        0.288923   1.000000
   55        0.400706   1.000000
   56        0.423149   1.000000
   57        2.807821   0.000000
   58        2.978940   0.000000
   59        4.225856   0.000000
   60        4.241766   0.000000
   61        4.310089   0.000000
   62        4.477425   0.000000
   63        4.660556   0.000000
   64        4.845545   0.000000
   65        5.173024   0.000000
   66        5.405233   0.000000
   67        5.452465   0.000000
   68        5.593126   0.000000
   69        5.723018   0.000000
   70        5.868292   0.000000
   71        6.206467   0.000000
   72        6.284280   0.000000
   73        6.528982   0.000000
   74        6.606971   0.000000
   75        6.936773   0.000000
   76        7.093778   0.000000
   77        8.700884   0.000000
   78        9.844830   0.000000
   79       10.940796   0.000000
   80       13.439286   0.000000
   81       13.576465   0.000000
   82       15.388015   0.000000
   83       15.458657   0.000000
   84       16.106147   0.000000
   85       16.569917   0.000000
   86       16.638126   0.000000
   87       16.844171   0.000000
   88       17.019864   0.000000
   89       17.154233   0.000000
   90       17.788869   0.000000
   91       17.936716   0.000000
   92       18.114007   0.000000
   93       18.391195   0.000000
   94       19.143654   0.000000
   95       19.493129   0.000000
   96       19.606400   0.000000
   97       19.870999   0.000000
   98       19.915404   0.000000
   99       19.917844   0.000000
  100       20.022330   0.000000
  101       20.268153   0.000000
  102       20.451520   0.000000
  103       20.906017   0.000000
  104       21.412568   0.000000
  105       21.482250   0.000000
  106       21.805839   0.000000
  107       23.181219   0.000000
  108       23.362101   0.000000
  109       24.025805   0.000000
  110       24.165553   0.000000
  111       24.873665   0.000000
  112       25.056327   0.000000
  113       25.065312   0.000000
  114       25.247527   0.000000
  115       25.950030   0.000000
  116       26.020129   0.000000
  117       26.425840   0.000000
  118       26.663293   0.000000
  119       27.104545   0.000000
  120       27.170202   0.000000
  121       27.339348   0.000000
  122       27.459763   0.000000
  123       27.969349   0.000000
  124       28.200021   0.000000
  125       28.260334   0.000000
  126       28.416233   0.000000
  127       28.519908   0.000000
  128       28.970341   0.000000
 
 -0.5652785E-02  0.0000000E+00  0.1846900E-01  0.1851852E-01
    1      -63.006060   1.000000
    2      -63.004174   1.000000
    3      -62.994042   1.000000
    4      -62.992155   1.000000
    5      -36.993565   1.000000
    6      -36.990143   1.000000
    7      -36.986014   1.000000
    8      -36.979635   1.000000
    9      -36.948694   1.000000
   10      -36.898201   1.000000
   11      -36.862083   1.000000
   12      -36.840509   1.000000
   13      -36.838166   1.000000
   14      -36.813775   1.000000
   15      -36.802689   1.000000
   16      -36.800257   1.000000
   17      -16.648784   1.000000
   18      -16.517333   1.000000
   19      -15.535131   1.000000
   20      -15.417985   1.000000
   21      -15.330810   1.000000
   22      -15.258098   1.000000
   23      -14.892788   1.000000
   24      -14.873261   1.000000
   25      -14.741815   1.000000
   26      -14.693678   1.000000
   27       -3.432283   1.000000
   28       -3.405534   1.000000
   29       -3.387368   1.000000
   30       -3.244751   1.000000
   31       -3.088206   1.000000
   32       -2.506854   1.000000
   33       -1.872946   1.000000
   34       -1.812836   1.000000
   35       -1.712399   1.000000
   36       -1.561354   1.000000
   37       -1.216761   1.000000
   38       -1.191298   1.000000
   39       -1.066963   1.000000
   40       -0.950495   1.000000
   41       -0.888175   1.000000
   42       -0.859473   1.000000
   43       -0.851585   1.000000
   44       -0.844822   1.000000
   45       -0.724055   1.000000
   46       -0.681829   1.000000
   47       -0.658225   1.000000
   48       -0.501108   1.000000
   49       -0.362642   1.000000
   50       -0.005537   1.000000
   51        0.022136   1.000000
   52        0.044248   1.000000
   53        0.109225   1.000000
   54        0.289147   1.000000
   55        0.400594   1.000000
   56        0.423072   1.000000
   57        2.807955   0.000000
   58        2.978784   0.000000
   59        4.225936   0.000000
   60        4.242012   0.000000
   61        4.310030   0.000000
   62        4.477614   0.000000
   63        4.660441   0.000000
   64        4.843833   0.000000
   65        5.174789   0.000000
   66        5.405258   0.000000
   67        5.452391   0.000000
   68        5.593261   0.000000
   69        5.722926   0.000000
   70        5.868572   0.000000
   71        6.203950   0.000000
   72        6.284387   0.000000
   73        6.530542   0.000000
   74        6.607607   0.000000
   75        6.936579   0.000000
   76        7.093566   0.000000
   77        8.701468   0.000000
   78        9.842630   0.000000
   79       10.943426   0.000000
   80       13.420295   0.000000
   81       13.595203   0.000000
   82       15.388618   0.000000
   83       15.457635   0.000000
   84       16.106339   0.000000
   85       16.569351   0.000000
   86       16.634131   0.000000
   87       16.844392   0.000000
   88       17.023911   0.000000
   89       17.154215   0.000000
   90       17.789698   0.000000
   91       17.936207   0.000000
   92       18.114212   0.000000
   93       18.391019   0.000000
   94       19.142938   0.000000
   95       19.493136   0.000000
   96       19.606162   0.000000
   97       19.871091   0.000000
   98       19.915469   0.000000
   99       19.917776   0.000000
  100       20.022661   0.000000
  101       20.268014   0.000000
  102       20.442537   0.000000
  103       20.917266   0.000000
  104       21.410976   0.000000
  105       21.485104   0.000000
  106       21.805365   0.000000
  107       23.181007   0.000000
  108       23.357087   0.000000
  109       24.022776   0.000000
  110       24.170847   0.000000
  111       24.873790   0.000000
  112       25.051836   0.000000
  113       25.069106   0.000000
  114       25.248215   0.000000
  115       25.936541   0.000000
  116       26.035158   0.000000
  117       26.422427   0.000000
  118       26.665096   0.000000
  119       27.105436   0.000000
  120       27.173305   0.000000
  121       27.339475   0.000000
  122       27.459080   0.000000
  123       27.967250   0.000000
  124       28.189902   0.000000
  125       28.262119   0.000000
  126       28.414053   0.000000
  127       28.521016   0.000000
  128       28.979037   0.000000
 
 -0.5652785E-02  0.6785345E-02 -0.1846900E-01  0.1851852E-01
    1      -63.006060   1.000000
    2      -63.004174   1.000000
    3      -62.994042   1.000000
    4      -62.992155   1.000000
    5      -36.993568   1.000000
    6      -36.990145   1.000000
    7      -36.986017   1.000000
    8      -36.979638   1.000000
    9      -36.948694   1.000000
   10      -36.898201   1.000000
   11      -36.862083   1.000000
   12      -36.840509   1.000000
   13      -36.838165   1.000000
   14      -36.813775   1.000000
   15      -36.802689   1.000000
   16      -36.800258   1.000000
   17      -16.648725   1.000000
   18      -16.517278   1.000000
   19      -15.535069   1.000000
   20      -15.417947   1.000000
   21      -15.330807   1.000000
   22      -15.258083   1.000000
   23      -14.892766   1.000000
   24      -14.873260   1.000000
   25      -14.741764   1.000000
   26      -14.693659   1.000000
   27       -3.432303   1.000000
   28       -3.405568   1.000000
   29       -3.387401   1.000000
   30       -3.244781   1.000000
   31       -3.088270   1.000000
   32       -2.506934   1.000000
   33       -1.875227   1.000000
   34       -1.812350   1.000000
   35       -1.713577   1.000000
   36       -1.562073   1.000000
   37       -1.217183   1.000000
   38       -1.191670   1.000000
   39       -1.067132   1.000000
   40       -0.950106   1.000000
   41       -0.889068   1.000000
   42       -0.859853   1.000000
   43       -0.851206   1.000000
   44       -0.844506   1.000000
   45       -0.723488   1.000000
   46       -0.681519   1.000000
   47       -0.657805   1.000000
   48       -0.500164   1.000000
   49       -0.362830   1.000000
   50       -0.005481   1.000000
   51        0.022150   1.000000
   52        0.044429   1.000000
   53        0.109282   1.000000
   54        0.289568   1.000000
   55        0.400615   1.000000
   56        0.423335   1.000000
   57        2.808035   0.000000
   58        2.978881   0.000000
   59        4.225985   0.000000
   60        4.242169   0.000000
   61        4.310096   0.000000
   62        4.477661   0.000000
   63        4.660542   0.000000
   64        4.844043   0.000000
   65        5.174758   0.000000
   66        5.405296   0.000000
   67        5.452416   0.000000
   68        5.593287   0.000000
   69        5.722952   0.000000
   70        5.869142   0.000000
   71        6.204130   0.000000
   72        6.284812   0.000000
   73        6.530574   0.000000
   74        6.608028   0.000000
   75        6.936918   0.000000
   76        7.093709   0.000000
   77        8.702195   0.000000
   78        9.842971   0.000000
   79       10.943960   0.000000
   80       13.420574   0.000000
   81       13.595522   0.000000
   82       15.384978   0.000000
   83       15.458041   0.000000
   84       16.107436   0.000000
   85       16.539855   0.000000
   86       16.663425   0.000000
   87       16.845551   0.000000
   88       17.022662   0.000000
   89       17.154228   0.000000
   90       17.789220   0.000000
   91       17.936872   0.000000
   92       18.114859   0.000000
   93       18.391320   0.000000
   94       19.143202   0.000000
   95       19.492914   0.000000
   96       19.605810   0.000000
   97       19.869146   0.000000
   98       19.913060   0.000000
   99       19.917078   0.000000
  100       20.024533   0.000000
  101       20.268259   0.000000
  102       20.444210   0.000000
  103       20.917754   0.000000
  104       21.410389   0.000000
  105       21.484761   0.000000
  106       21.806001   0.000000
  107       23.181429   0.000000
  108       23.356119   0.000000
  109       24.022855   0.000000
  110       24.170903   0.000000
  111       24.875820   0.000000
  112       25.048755   0.000000
  113       25.073203   0.000000
  114       25.247310   0.000000
  115       25.936163   0.000000
  116       26.036108   0.000000
  117       26.422321   0.000000
  118       26.665063   0.000000
  119       27.104942   0.000000
  120       27.161953   0.000000
  121       27.346795   0.000000
  122       27.457763   0.000000
  123       27.969082   0.000000
  124       28.190130   0.000000
  125       28.261508   0.000000
  126       28.414583   0.000000
  127       28.520154   0.000000
  128       28.979310   0.000000
 
 -0.5652785E-02  0.6785345E-02  0.0000000E+00  0.1851852E-01
    1      -63.006061   1.000000
    2      -63.004172   1.000000
    3      -62.994044   1.000000
    4      -62.992154   1.000000
    5      -36.993571   1.000000
    6      -36.990143   1.000000
    7      -36.986021   1.000000
    8      -36.979630   1.000000
    9      -36.948727   1.000000
   10      -36.898106   1.000000
   11      -36.862179   1.000000
   12      -36.840511   1.000000
   13      -36.838165   1.000000
   14      -36.813750   1.000000
   15      -36.802692   1.000000
   16      -36.800256   1.000000
   17      -16.648834   1.000000
   18      -16.517150   1.000000
   19      -15.535212   1.000000
   20      -15.417899   1.000000
   21      -15.330841   1.000000
   22      -15.257993   1.000000
   23      -14.892769   1.000000
   24      -14.873225   1.000000
   25      -14.741842   1.000000
   26      -14.693633   1.000000
   27       -3.432351   1.000000
   28       -3.405584   1.000000
   29       -3.387386   1.000000
   30       -3.244069   1.000000
   31       -3.089234   1.000000
   32       -2.506378   1.000000
   33       -1.875553   1.000000
   34       -1.812609   1.000000
   35       -1.713523   1.000000
   36       -1.562085   1.000000
   37       -1.217203   1.000000
   38       -1.191647   1.000000
   39       -1.065902   1.000000
   40       -0.951440   1.000000
   41       -0.887907   1.000000
   42       -0.859876   1.000000
   43       -0.852045   1.000000
   44       -0.844570   1.000000
   45       -0.723447   1.000000
   46       -0.681529   1.000000
   47       -0.657776   1.000000
   48       -0.499495   1.000000
   49       -0.363475   1.000000
   50       -0.005506   1.000000
   51        0.022173   1.000000
   52        0.045701   1.000000
   53        0.108094   1.000000
   54        0.289344   1.000000
   55        0.400727   1.000000
   56        0.423412   1.000000
   57        2.807901   0.000000
   58        2.979036   0.000000
   59        4.225903   0.000000
   60        4.241923   0.000000
   61        4.310155   0.000000
   62        4.477472   0.000000
   63        4.660657   0.000000
   64        4.845756   0.000000
   65        5.172991   0.000000
   66        5.405271   0.000000
   67        5.452490   0.000000
   68        5.593145   0.000000
   69        5.723044   0.000000
   70        5.868861   0.000000
   71        6.206649   0.000000
   72        6.284703   0.000000
   73        6.529014   0.000000
   74        6.607392   0.000000
   75        6.937108   0.000000
   76        7.093920   0.000000
   77        8.701610   0.000000
   78        9.845171   0.000000
   79       10.941331   0.000000
   80       13.439546   0.000000
   81       13.576787   0.000000
   82       15.384391   0.000000
   83       15.459046   0.000000
   84       16.107242   0.000000
   85       16.541025   0.000000
   86       16.666866   0.000000
   87       16.845360   0.000000
   88       17.018551   0.000000
   89       17.154218   0.000000
   90       17.788394   0.000000
   91       17.937387   0.000000
   92       18.114653   0.000000
   93       18.391475   0.000000
   94       19.143916   0.000000
   95       19.492906   0.000000
   96       19.606048   0.000000
   97       19.869061   0.000000
   98       19.912999   0.000000
   99       19.917127   0.000000
  100       20.024222   0.000000
  101       20.268397   0.000000
  102       20.453193   0.000000
  103       20.906502   0.000000
  104       21.411954   0.000000
  105       21.481925   0.000000
  106       21.806468   0.000000
  107       23.181640   0.000000
  108       23.361118   0.000000
  109       24.025862   0.000000
  110       24.165627   0.000000
  111       24.875691   0.000000
  112       25.051620   0.000000
  113       25.071063   0.000000
  114       25.246601   0.000000
  115       25.949365   0.000000
  116       26.021333   0.000000
  117       26.425715   0.000000
  118       26.663262   0.000000
  119       27.104105   0.000000
  120       27.158881   0.000000
  121       27.346576   0.000000
  122       27.458417   0.000000
  123       27.971189   0.000000
  124       28.200239   0.000000
  125       28.259713   0.000000
  126       28.416758   0.000000
  127       28.519045   0.000000
  128       28.970620   0.000000
 
 -0.5652785E-02  0.6785345E-02  0.1846900E-01  0.1851852E-01
    1      -63.006060   1.000000
    2      -63.004174   1.000000
    3      -62.994042   1.000000
    4      -62.992155   1.000000
    5      -36.993568   1.000000
    6      -36.990145   1.000000
    7      -36.986017   1.000000
    8      -36.979638   1.000000
    9      -36.948694   1.000000
   10      -36.898201   1.000000
   11      -36.862083   1.000000
   12      -36.840509   1.000000
   13      -36.838165   1.000000
   14      -36.813775   1.000000
   15      -36.802689   1.000000
   16      -36.800258   1.000000
   17      -16.648725   1.000000
   18      -16.517278   1.000000
   19      -15.535069   1.000000
   20      -15.417947   1.000000
   21      -15.330807   1.000000
   22      -15.258083   1.000000
   23      -14.892766   1.000000
   24      -14.873260   1.000000
   25      -14.741764   1.000000
   26      -14.693659   1.000000
   27       -3.432303   1.000000
   28       -3.405568   1.000000
   29       -3.387401   1.000000
   30       -3.244781   1.000000
   31       -3.088270   1.000000
   32       -2.506934   1.000000
   33       -1.875227   1.000000
   34       -1.812350   1.000000
   35       -1.713577   1.000000
   36       -1.562073   1.000000
   37       -1.217183   1.000000
   38       -1.191670   1.000000
   39       -1.067132   1.000000
   40       -0.950106   1.000000
   41       -0.889068   1.000000
   42       -0.859853   1.000000
   43       -0.851206   1.000000
   44       -0.844506   1.000000
   45       -0.723488   1.000000
   46       -0.681519   1.000000
   47       -0.657805   1.000000
   48       -0.500164   1.000000
   49       -0.362830   1.000000
   50       -0.005481   1.000000
   51        0.022150   1.000000
   52        0.044429   1.000000
   53        0.109282   1.000000
   54        0.289568   1.000000
   55        0.400615   1.000000
   56        0.423335   1.000000
   57        2.808035   0.000000
   58        2.978881   0.000000
   59        4.225985   0.000000
   60        4.242169   0.000000
   61        4.310096   0.000000
   62        4.477661   0.000000
   63        4.660542   0.000000
   64        4.844043   0.000000
   65        5.174758   0.000000
   66        5.405296   0.000000
   67        5.452416   0.000000
   68        5.593287   0.000000
   69        5.722952   0.000000
   70        5.869142   0.000000
   71        6.204130   0.000000
   72        6.284812   0.000000
   73        6.530574   0.000000
   74        6.608028   0.000000
   75        6.936918   0.000000
   76        7.093709   0.000000
   77        8.702195   0.000000
   78        9.842971   0.000000
   79       10.943960   0.000000
   80       13.420574   0.000000
   81       13.595522   0.000000
   82       15.384978   0.000000
   83       15.458041   0.000000
   84       16.107436   0.000000
   85       16.539855   0.000000
   86       16.663425   0.000000
   87       16.845551   0.000000
   88       17.022662   0.000000
   89       17.154228   0.000000
   90       17.789220   0.000000
   91       17.936872   0.000000
   92       18.114859   0.000000
   93       18.391320   0.000000
   94       19.143202   0.000000
   95       19.492914   0.000000
   96       19.605810   0.000000
   97       19.869146   0.000000
   98       19.913060   0.000000
   99       19.917078   0.000000
  100       20.024533   0.000000
  101       20.268259   0.000000
  102       20.444210   0.000000
  103       20.917754   0.000000
  104       21.410389   0.000000
  105       21.484761   0.000000
  106       21.806001   0.000000
  107       23.181429   0.000000
  108       23.356119   0.000000
  109       24.022855   0.000000
  110       24.170903   0.000000
  111       24.875820   0.000000
  112       25.048755   0.000000
  113       25.073203   0.000000
  114       25.247310   0.000000
  115       25.936163   0.000000
  116       26.036108   0.000000
  117       26.422321   0.000000
  118       26.665063   0.000000
  119       27.104942   0.000000
  120       27.161953   0.000000
  121       27.346795   0.000000
  122       27.457763   0.000000
  123       27.969082   0.000000
  124       28.190130   0.000000
  125       28.261508   0.000000
  126       28.414583   0.000000
  127       28.520154   0.000000
  128       28.979311   0.000000
 
  0.0000000E+00 -0.6785345E-02 -0.1846900E-01  0.1851852E-01
    1      -63.006062   1.000000
    2      -63.004176   1.000000
    3      -62.994042   1.000000
    4      -62.992155   1.000000
    5      -36.993570   1.000000
    6      -36.990146   1.000000
    7      -36.986018   1.000000
    8      -36.979639   1.000000
    9      -36.948696   1.000000
   10      -36.898200   1.000000
   11      -36.862053   1.000000
   12      -36.840516   1.000000
   13      -36.838126   1.000000
   14      -36.813790   1.000000
   15      -36.802672   1.000000
   16      -36.800243   1.000000
   17      -16.648934   1.000000
   18      -16.517489   1.000000
   19      -15.535164   1.000000
   20      -15.418041   1.000000
   21      -15.330822   1.000000
   22      -15.258103   1.000000
   23      -14.892789   1.000000
   24      -14.873281   1.000000
   25      -14.741746   1.000000
   26      -14.693647   1.000000
   27       -3.432414   1.000000
   28       -3.405022   1.000000
   29       -3.386694   1.000000
   30       -3.244884   1.000000
   31       -3.088575   1.000000
   32       -2.507029   1.000000
   33       -1.875452   1.000000
   34       -1.812408   1.000000
   35       -1.713632   1.000000
   36       -1.562043   1.000000
   37       -1.216082   1.000000
   38       -1.190659   1.000000
   39       -1.067300   1.000000
   40       -0.950282   1.000000
   41       -0.889439   1.000000
   42       -0.859436   1.000000
   43       -0.850621   1.000000
   44       -0.845092   1.000000
   45       -0.723729   1.000000
   46       -0.681325   1.000000
   47       -0.657522   1.000000
   48       -0.500723   1.000000
   49       -0.362781   1.000000
   50       -0.005113   1.000000
   51        0.022466   1.000000
   52        0.043888   1.000000
   53        0.109011   1.000000
   54        0.289415   1.000000
   55        0.400279   1.000000
   56        0.423329   1.000000
   57        2.807796   0.000000
   58        2.978619   0.000000
   59        4.225826   0.000000
   60        4.242194   0.000000
   61        4.310249   0.000000
   62        4.477370   0.000000
   63        4.660654   0.000000
   64        4.843982   0.000000
   65        5.175363   0.000000
   66        5.406861   0.000000
   67        5.454122   0.000000
   68        5.594758   0.000000
   69        5.722896   0.000000
   70        5.869084   0.000000
   71        6.203055   0.000000
   72        6.284115   0.000000
   73        6.530028   0.000000
   74        6.608157   0.000000
   75        6.936979   0.000000
   76        7.092623   0.000000
   77        8.701556   0.000000
   78        9.842537   0.000000
   79       10.943463   0.000000
   80       13.420270   0.000000
   81       13.595056   0.000000
   82       15.384454   0.000000
   83       15.457593   0.000000
   84       16.107391   0.000000
   85       16.539912   0.000000
   86       16.663247   0.000000
   87       16.846111   0.000000
   88       17.022281   0.000000
   89       17.154122   0.000000
   90       17.789193   0.000000
   91       17.938014   0.000000
   92       18.114766   0.000000
   93       18.391354   0.000000
   94       19.143943   0.000000
   95       19.493855   0.000000
   96       19.607935   0.000000
   97       19.870811   0.000000
   98       19.911551   0.000000
   99       19.916898   0.000000
  100       20.024654   0.000000
  101       20.267617   0.000000
  102       20.443499   0.000000
  103       20.916622   0.000000
  104       21.411236   0.000000
  105       21.485015   0.000000
  106       21.806335   0.000000
  107       23.178659   0.000000
  108       23.357513   0.000000
  109       24.021641   0.000000
  110       24.172405   0.000000
  111       24.876929   0.000000
  112       25.048787   0.000000
  113       25.072385   0.000000
  114       25.247871   0.000000
  115       25.934997   0.000000
  116       26.035743   0.000000
  117       26.421237   0.000000
  118       26.665970   0.000000
  119       27.105029   0.000000
  120       27.160505   0.000000
  121       27.345514   0.000000
  122       27.458488   0.000000
  123       27.967646   0.000000
  124       28.188167   0.000000
  125       28.260331   0.000000
  126       28.417491   0.000000
  127       28.523605   0.000000
  128       28.973913   0.000000
 
  0.0000000E+00 -0.6785345E-02  0.0000000E+00  0.1851852E-01
    1      -63.006063   1.000000
    2      -63.004174   1.000000
    3      -62.994044   1.000000
    4      -62.992154   1.000000
    5      -36.993573   1.000000
    6      -36.990144   1.000000
    7      -36.986022   1.000000
    8      -36.979630   1.000000
    9      -36.948727   1.000000
   10      -36.898106   1.000000
   11      -36.862149   1.000000
   12      -36.840518   1.000000
   13      -36.838124   1.000000
   14      -36.813764   1.000000
   15      -36.802675   1.000000
   16      -36.800248   1.000000
   17      -16.649030   1.000000
   18      -16.517363   1.000000
   19      -15.535307   1.000000
   20      -15.417986   1.000000
   21      -15.330867   1.000000
   22      -15.258012   1.000000
   23      -14.892812   1.000000
   24      -14.873239   1.000000
   25      -14.741812   1.000000
   26      -14.693625   1.000000
   27       -3.432464   1.000000
   28       -3.405039   1.000000
   29       -3.386678   1.000000
   30       -3.244168   1.000000
   31       -3.089541   1.000000
   32       -2.506474   1.000000
   33       -1.875778   1.000000
   34       -1.812667   1.000000
   35       -1.713578   1.000000
   36       -1.562055   1.000000
   37       -1.216102   1.000000
   38       -1.190637   1.000000
   39       -1.066069   1.000000
   40       -0.951618   1.000000
   41       -0.888288   1.000000
   42       -0.859457   1.000000
   43       -0.851518   1.000000
   44       -0.845090   1.000000
   45       -0.723687   1.000000
   46       -0.681335   1.000000
   47       -0.657493   1.000000
   48       -0.500058   1.000000
   49       -0.363421   1.000000
   50       -0.005137   1.000000
   51        0.022489   1.000000
   52        0.045158   1.000000
   53        0.107825   1.000000
   54        0.289192   1.000000
   55        0.400388   1.000000
   56        0.423409   1.000000
   57        2.807661   0.000000
   58        2.978776   0.000000
   59        4.225741   0.000000
   60        4.241952   0.000000
   61        4.310307   0.000000
   62        4.477179   0.000000
   63        4.660770   0.000000
   64        4.845694   0.000000
   65        5.173596   0.000000
   66        5.406836   0.000000
   67        5.454197   0.000000
   68        5.594616   0.000000
   69        5.722988   0.000000
   70        5.868803   0.000000
   71        6.205581   0.000000
   72        6.283997   0.000000
   73        6.528475   0.000000
   74        6.607522   0.000000
   75        6.937170   0.000000
   76        7.092833   0.000000
   77        8.700972   0.000000
   78        9.844736   0.000000
   79       10.940833   0.000000
   80       13.439279   0.000000
   81       13.576300   0.000000
   82       15.383866   0.000000
   83       15.458597   0.000000
   84       16.107199   0.000000
   85       16.541089   0.000000
   86       16.666685   0.000000
   87       16.845921   0.000000
   88       17.018162   0.000000
   89       17.154112   0.000000
   90       17.788344   0.000000
   91       17.938542   0.000000
   92       18.114559   0.000000
   93       18.391516   0.000000
   94       19.144660   0.000000
   95       19.493845   0.000000
   96       19.608175   0.000000
   97       19.870721   0.000000
   98       19.911480   0.000000
   99       19.916945   0.000000
  100       20.024348   0.000000
  101       20.267741   0.000000
  102       20.452535   0.000000
  103       20.905336   0.000000
  104       21.412754   0.000000
  105       21.482165   0.000000
  106       21.806805   0.000000
  107       23.178866   0.000000
  108       23.362519   0.000000
  109       24.024646   0.000000
  110       24.167141   0.000000
  111       24.876764   0.000000
  112       25.051518   0.000000
  113       25.070410   0.000000
  114       25.247159   0.000000
  115       25.948131   0.000000
  116       26.021053   0.000000
  117       26.424605   0.000000
  118       26.664194   0.000000
  119       27.104203   0.000000
  120       27.157414   0.000000
  121       27.345295   0.000000
  122       27.459142   0.000000
  123       27.969752   0.000000
  124       28.198082   0.000000
  125       28.258543   0.000000
  126       28.419591   0.000000
  127       28.522915   0.000000
  128       28.964940   0.000000
 
  0.0000000E+00 -0.6785345E-02  0.1846900E-01  0.1851852E-01
    1      -63.006062   1.000000
    2      -63.004176   1.000000
    3      -62.994042   1.000000
    4      -62.992155   1.000000
    5      -36.993570   1.000000
    6      -36.990146   1.000000
    7      -36.986018   1.000000
    8      -36.979639   1.000000
    9      -36.948696   1.000000
   10      -36.898200   1.000000
   11      -36.862053   1.000000
   12      -36.840516   1.000000
   13      -36.838126   1.000000
   14      -36.813790   1.000000
   15      -36.802672   1.000000
   16      -36.800243   1.000000
   17      -16.648934   1.000000
   18      -16.517489   1.000000
   19      -15.535164   1.000000
   20      -15.418041   1.000000
   21      -15.330822   1.000000
   22      -15.258103   1.000000
   23      -14.892789   1.000000
   24      -14.873281   1.000000
   25      -14.741746   1.000000
   26      -14.693647   1.000000
   27       -3.432414   1.000000
   28       -3.405022   1.000000
   29       -3.386694   1.000000
   30       -3.244884   1.000000
   31       -3.088575   1.000000
   32       -2.507029   1.000000
   33       -1.875452   1.000000
   34       -1.812408   1.000000
   35       -1.713632   1.000000
   36       -1.562043   1.000000
   37       -1.216082   1.000000
   38       -1.190659   1.000000
   39       -1.067300   1.000000
   40       -0.950282   1.000000
   41       -0.889439   1.000000
   42       -0.859436   1.000000
   43       -0.850621   1.000000
   44       -0.845092   1.000000
   45       -0.723729   1.000000
   46       -0.681325   1.000000
   47       -0.657522   1.000000
   48       -0.500723   1.000000
   49       -0.362781   1.000000
   50       -0.005113   1.000000
   51        0.022466   1.000000
   52        0.043888   1.000000
   53        0.109011   1.000000
   54        0.289415   1.000000
   55        0.400279   1.000000
   56        0.423329   1.000000
   57        2.807796   0.000000
   58        2.978619   0.000000
   59        4.225826   0.000000
   60        4.242194   0.000000
   61        4.310249   0.000000
   62        4.477370   0.000000
   63        4.660654   0.000000
   64        4.843982   0.000000
   65        5.175363   0.000000
   66        5.406861   0.000000
   67        5.454122   0.000000
   68        5.594758   0.000000
   69        5.722896   0.000000
   70        5.869084   0.000000
   71        6.203055   0.000000
   72        6.284115   0.000000
   73        6.530028   0.000000
   74        6.608157   0.000000
   75        6.936979   0.000000
   76        7.092623   0.000000
   77        8.701556   0.000000
   78        9.842537   0.000000
   79       10.943463   0.000000
   80       13.420270   0.000000
   81       13.595056   0.000000
   82       15.384454   0.000000
   83       15.457593   0.000000
   84       16.107391   0.000000
   85       16.539912   0.000000
   86       16.663247   0.000000
   87       16.846111   0.000000
   88       17.022281   0.000000
   89       17.154122   0.000000
   90       17.789193   0.000000
   91       17.938014   0.000000
   92       18.114766   0.000000
   93       18.391354   0.000000
   94       19.143943   0.000000
   95       19.493855   0.000000
   96       19.607935   0.000000
   97       19.870811   0.000000
   98       19.911551   0.000000
   99       19.916898   0.000000
  100       20.024654   0.000000
  101       20.267617   0.000000
  102       20.443499   0.000000
  103       20.916622   0.000000
  104       21.411236   0.000000
  105       21.485015   0.000000
  106       21.806335   0.000000
  107       23.178659   0.000000
  108       23.357513   0.000000
  109       24.021641   0.000000
  110       24.172405   0.000000
  111       24.876929   0.000000
  112       25.048787   0.000000
  113       25.072385   0.000000
  114       25.247871   0.000000
  115       25.934997   0.000000
  116       26.035743   0.000000
  117       26.421237   0.000000
  118       26.665970   0.000000
  119       27.105029   0.000000
  120       27.160505   0.000000
  121       27.345514   0.000000
  122       27.458488   0.000000
  123       27.967646   0.000000
  124       28.188167   0.000000
  125       28.260331   0.000000
  126       28.417491   0.000000
  127       28.523605   0.000000
  128       28.973913   0.000000
 
  0.0000000E+00  0.0000000E+00 -0.1846900E-01  0.1851852E-01
    1      -63.006062   1.000000
    2      -63.004176   1.000000
    3      -62.994042   1.000000
    4      -62.992155   1.000000
    5      -36.993567   1.000000
    6      -36.990143   1.000000
    7      -36.986015   1.000000
    8      -36.979636   1.000000
    9      -36.948697   1.000000
   10      -36.898201   1.000000
   11      -36.862053   1.000000
   12      -36.840516   1.000000
   13      -36.838126   1.000000
   14      -36.813790   1.000000
   15      -36.802672   1.000000
   16      -36.800243   1.000000
   17      -16.648996   1.000000
   18      -16.517544   1.000000
   19      -15.535226   1.000000
   20      -15.418070   1.000000
   21      -15.330825   1.000000
   22      -15.258118   1.000000
   23      -14.892811   1.000000
   24      -14.873281   1.000000
   25      -14.741801   1.000000
   26      -14.693666   1.000000
   27       -3.432395   1.000000
   28       -3.404988   1.000000
   29       -3.386659   1.000000
   30       -3.244854   1.000000
   31       -3.088511   1.000000
   32       -2.506949   1.000000
   33       -1.873174   1.000000
   34       -1.812891   1.000000
   35       -1.712455   1.000000
   36       -1.561324   1.000000
   37       -1.215657   1.000000
   38       -1.190284   1.000000
   39       -1.067131   1.000000
   40       -0.950673   1.000000
   41       -0.888548   1.000000
   42       -0.859068   1.000000
   43       -0.850973   1.000000
   44       -0.845427   1.000000
   45       -0.724294   1.000000
   46       -0.681635   1.000000
   47       -0.657943   1.000000
   48       -0.501666   1.000000
   49       -0.362593   1.000000
   50       -0.005170   1.000000
   51        0.022453   1.000000
   52        0.043707   1.000000
   53        0.108954   1.000000
   54        0.288994   1.000000
   55        0.400257   1.000000
   56        0.423065   1.000000
   57        2.807716   0.000000
   58        2.978522   0.000000
   59        4.225778   0.000000
   60        4.242037   0.000000
   61        4.310182   0.000000
   62        4.477322   0.000000
   63        4.660553   0.000000
   64        4.843772   0.000000
   65        5.175396   0.000000
   66        5.406823   0.000000
   67        5.454097   0.000000
   68        5.594734   0.000000
   69        5.722870   0.000000
   70        5.868516   0.000000
   71        6.202871   0.000000
   72        6.283691   0.000000
   73        6.529995   0.000000
   74        6.607737   0.000000
   75        6.936641   0.000000
   76        7.092479   0.000000
   77        8.700828   0.000000
   78        9.842195   0.000000
   79       10.942929   0.000000
   80       13.419990   0.000000
   81       13.594739   0.000000
   82       15.388091   0.000000
   83       15.457187   0.000000
   84       16.106294   0.000000
   85       16.569508   0.000000
   86       16.633856   0.000000
   87       16.844950   0.000000
   88       17.023529   0.000000
   89       17.154111   0.000000
   90       17.789672   0.000000
   91       17.937340   0.000000
   92       18.114119   0.000000
   93       18.391059   0.000000
   94       19.143677   0.000000
   95       19.494081   0.000000
   96       19.608290   0.000000
   97       19.872805   0.000000
   98       19.913849   0.000000
   99       19.917608   0.000000
  100       20.022837   0.000000
  101       20.267372   0.000000
  102       20.441815   0.000000
  103       20.916125   0.000000
  104       21.411827   0.000000
  105       21.485360   0.000000
  106       21.805697   0.000000
  107       23.178220   0.000000
  108       23.358494   0.000000
  109       24.021569   0.000000
  110       24.172348   0.000000
  111       24.874899   0.000000
  112       25.052067   0.000000
  113       25.068089   0.000000
  114       25.248781   0.000000
  115       25.935368   0.000000
  116       26.034799   0.000000
  117       26.421348   0.000000
  118       26.666009   0.000000
  119       27.105531   0.000000
  120       27.171859   0.000000
  121       27.338185   0.000000
  122       27.459816   0.000000
  123       27.965811   0.000000
  124       28.187933   0.000000
  125       28.260941   0.000000
  126       28.416963   0.000000
  127       28.524490   0.000000
  128       28.973620   0.000000
 
  0.0000000E+00  0.0000000E+00  0.0000000E+00  0.1851852E-01
    1      -63.006063   1.000000
    2      -63.004174   1.000000
    3      -62.994045   1.000000
    4      -62.992154   1.000000
    5      -36.993573   1.000000
    6      -36.990142   1.000000
    7      -36.986018   1.000000
    8      -36.979627   1.000000
    9      -36.948728   1.000000
   10      -36.898110   1.000000
   11      -36.862150   1.000000
   12      -36.840523   1.000000
   13      -36.838124   1.000000
   14      -36.813764   1.000000
   15      -36.802675   1.000000
   16      -36.800249   1.000000
   17      -16.649125   1.000000
   18      -16.517418   1.000000
   19      -15.535369   1.000000
   20      -15.418035   1.000000
   21      -15.330871   1.000000
   22      -15.258039   1.000000
   23      -14.892835   1.000000
   24      -14.873245   1.000000
   25      -14.741873   1.000000
   26      -14.693644   1.000000
   27       -3.432445   1.000000
   28       -3.405005   1.000000
   29       -3.386648   1.000000
   30       -3.244142   1.000000
   31       -3.089478   1.000000
   32       -2.506393   1.000000
   33       -1.873502   1.000000
   34       -1.813149   1.000000
   35       -1.712400   1.000000
   36       -1.561336   1.000000
   37       -1.215677   1.000000
   38       -1.190262   1.000000
   39       -1.065894   1.000000
   40       -0.952019   1.000000
   41       -0.887357   1.000000
   42       -0.859089   1.000000
   43       -0.851904   1.000000
   44       -0.845426   1.000000
   45       -0.724253   1.000000
   46       -0.681645   1.000000
   47       -0.657915   1.000000
   48       -0.501004   1.000000
   49       -0.363230   1.000000
   50       -0.005194   1.000000
   51        0.022475   1.000000
   52        0.044973   1.000000
   53        0.107772   1.000000
   54        0.288770   1.000000
   55        0.400367   1.000000
   56        0.423145   1.000000
   57        2.807581   0.000000
   58        2.978678   0.000000
   59        4.225693   0.000000
   60        4.241795   0.000000
   61        4.310240   0.000000
   62        4.477132   0.000000
   63        4.660668   0.000000
   64        4.845483   0.000000
   65        5.173629   0.000000
   66        5.406798   0.000000
   67        5.454162   0.000000
   68        5.594587   0.000000
   69        5.722962   0.000000
   70        5.868235   0.000000
   71        6.205383   0.000000
   72        6.283573   0.000000
   73        6.528440   0.000000
   74        6.607100   0.000000
   75        6.936832   0.000000
   76        7.092688   0.000000
   77        8.700235   0.000000
   78        9.844395   0.000000
   79       10.940298   0.000000
   80       13.438978   0.000000
   81       13.575970   0.000000
   82       15.387481   0.000000
   83       15.458207   0.000000
   84       16.106097   0.000000
   85       16.570079   0.000000
   86       16.637848   0.000000
   87       16.844725   0.000000
   88       17.019471   0.000000
   89       17.154123   0.000000
   90       17.788817   0.000000
   91       17.937871   0.000000
   92       18.113911   0.000000
   93       18.391220   0.000000
   94       19.144395   0.000000
   95       19.494047   0.000000
   96       19.608529   0.000000
   97       19.872707   0.000000
   98       19.913774   0.000000
   99       19.917637   0.000000
  100       20.022524   0.000000
  101       20.267494   0.000000
  102       20.450850   0.000000
  103       20.904841   0.000000
  104       21.413354   0.000000
  105       21.482486   0.000000
  106       21.806172   0.000000
  107       23.178428   0.000000
  108       23.363515   0.000000
  109       24.024535   0.000000
  110       24.167064   0.000000
  111       24.874729   0.000000
  112       25.056589   0.000000
  113       25.064275   0.000000
  114       25.248091   0.000000
  115       25.948615   0.000000
  116       26.019831   0.000000
  117       26.424721   0.000000
  118       26.664214   0.000000
  119       27.104638   0.000000
  120       27.168737   0.000000
  121       27.338057   0.000000
  122       27.460467   0.000000
  123       27.967911   0.000000
  124       28.197856   0.000000
  125       28.259162   0.000000
  126       28.419063   0.000000
  127       28.523788   0.000000
  128       28.964642   0.000000
 
  0.0000000E+00  0.0000000E+00  0.1846900E-01  0.1851852E-01
    1      -63.006062   1.000000
    2      -63.004176   1.000000
    3      -62.994042   1.000000
    4      -62.992155   1.000000
    5      -36.993567   1.000000
    6      -36.990143   1.000000
    7      -36.986015   1.000000
    8      -36.979636   1.000000
    9      -36.948697   1.000000
   10      -36.898201   1.000000
   11      -36.862053   1.000000
   12      -36.840516   1.000000
   13      -36.838126   1.000000
   14      -36.813790   1.000000
   15      -36.802672   1.000000
   16      -36.800243   1.000000
   17      -16.648996   1.000000
   18      -16.517544   1.000000
   19      -15.535226   1.000000
   20      -15.418070   1.000000
   21      -15.330825   1.000000
   22      -15.258118   1.000000
   23      -14.892811   1.000000
   24      -14.873281   1.000000
   25      -14.741801   1.000000
   26      -14.693666   1.000000
   27       -3.432395   1.000000
   28       -3.404988   1.000000
   29       -3.386659   1.000000
   30       -3.244854   1.000000
   31       -3.088511   1.000000
   32       -2.506949   1.000000
   33       -1.873174   1.000000
   34       -1.812891   1.000000
   35       -1.712455   1.000000
   36       -1.561324   1.000000
   37       -1.215657   1.000000
   38       -1.190284   1.000000
   39       -1.067131   1.000000
   40       -0.950673   1.000000
   41       -0.888548   1.000000
   42       -0.859068   1.000000
   43       -0.850973   1.000000
   44       -0.845427   1.000000
   45       -0.724294   1.000000
   46       -0.681635   1.000000
   47       -0.657943   1.000000
   48       -0.501666   1.000000
   49       -0.362593   1.000000
   50       -0.005170   1.000000
   51        0.022453   1.000000
   52        0.043707   1.000000
   53        0.108954   1.000000
   54        0.288994   1.000000
   55        0.400257   1.000000
   56        0.423065   1.000000
   57        2.807716   0.000000
   58        2.978522   0.000000
   59        4.225778   0.000000
   60        4.242037   0.000000
   61        4.310182   0.000000
   62        4.477322   0.000000
   63        4.660553   0.000000
   64        4.843772   0.000000
   65        5.175396   0.000000
   66        5.406823   0.000000
   67        5.454097   0.000000
   68        5.594734   0.000000
   69        5.722870   0.000000
   70        5.868516   0.000000
   71        6.202871   0.000000
   72        6.283691   0.000000
   73        6.529995   0.000000
   74        6.607737   0.000000
   75        6.936641   0.000000
   76        7.092479   0.000000
   77        8.700828   0.000000
   78        9.842195   0.000000
   79       10.942929   0.000000
   80       13.419990   0.000000
   81       13.594739   0.000000
   82       15.388091   0.000000
   83       15.457187   0.000000
   84       16.106294   0.000000
   85       16.569508   0.000000
   86       16.633856   0.000000
   87       16.844950   0.000000
   88       17.023529   0.000000
   89       17.154111   0.000000
   90       17.789672   0.000000
   91       17.937340   0.000000
   92       18.114119   0.000000
   93       18.391059   0.000000
   94       19.143677   0.000000
   95       19.494081   0.000000
   96       19.608290   0.000000
   97       19.872805   0.000000
   98       19.913849   0.000000
   99       19.917608   0.000000
  100       20.022837   0.000000
  101       20.267372   0.000000
  102       20.441815   0.000000
  103       20.916125   0.000000
  104       21.411827   0.000000
  105       21.485360   0.000000
  106       21.805697   0.000000
  107       23.178220   0.000000
  108       23.358494   0.000000
  109       24.021569   0.000000
  110       24.172348   0.000000
  111       24.874899   0.000000
  112       25.052067   0.000000
  113       25.068089   0.000000
  114       25.248781   0.000000
  115       25.935368   0.000000
  116       26.034799   0.000000
  117       26.421348   0.000000
  118       26.666009   0.000000
  119       27.105531   0.000000
  120       27.171859   0.000000
  121       27.338185   0.000000
  122       27.459816   0.000000
  123       27.965811   0.000000
  124       28.187933   0.000000
  125       28.260941   0.000000
  126       28.416963   0.000000
  127       28.524490   0.000000
  128       28.973641   0.000000
 
  0.0000000E+00  0.6785345E-02 -0.1846900E-01  0.1851852E-01
    1      -63.006062   1.000000
    2      -63.004176   1.000000
    3      -62.994042   1.000000
    4      -62.992155   1.000000
    5      -36.993570   1.000000
    6      -36.990146   1.000000
    7      -36.986018   1.000000
    8      -36.979639   1.000000
    9      -36.948696   1.000000
   10      -36.898200   1.000000
   11      -36.862053   1.000000
   12      -36.840516   1.000000
   13      -36.838126   1.000000
   14      -36.813790   1.000000
   15      -36.802672   1.000000
   16      -36.800243   1.000000
   17      -16.648934   1.000000
   18      -16.517489   1.000000
   19      -15.535164   1.000000
   20      -15.418041   1.000000
   21      -15.330822   1.000000
   22      -15.258103   1.000000
   23      -14.892789   1.000000
   24      -14.873281   1.000000
   25      -14.741746   1.000000
   26      -14.693647   1.000000
   27       -3.432414   1.000000
   28       -3.405022   1.000000
   29       -3.386694   1.000000
   30       -3.244884   1.000000
   31       -3.088575   1.000000
   32       -2.507029   1.000000
   33       -1.875452   1.000000
   34       -1.812408   1.000000
   35       -1.713632   1.000000
   36       -1.562043   1.000000
   37       -1.216082   1.000000
   38       -1.190659   1.000000
   39       -1.067300   1.000000
   40       -0.950282   1.000000
   41       -0.889439   1.000000
   42       -0.859436   1.000000
   43       -0.850621   1.000000
   44       -0.845092   1.000000
   45       -0.723729   1.000000
   46       -0.681325   1.000000
   47       -0.657522   1.000000
   48       -0.500723   1.000000
   49       -0.362781   1.000000
   50       -0.005113   1.000000
   51        0.022466   1.000000
   52        0.043888   1.000000
   53        0.109011   1.000000
   54        0.289415   1.000000
   55        0.400279   1.000000
   56        0.423329   1.000000
   57        2.807796   0.000000
   58        2.978619   0.000000
   59        4.225826   0.000000
   60        4.242194   0.000000
   61        4.310249   0.000000
   62        4.477370   0.000000
   63        4.660654   0.000000
   64        4.843982   0.000000
   65        5.175363   0.000000
   66        5.406861   0.000000
   67        5.454122   0.000000
   68        5.594758   0.000000
   69        5.722896   0.000000
   70        5.869084   0.000000
   71        6.203055   0.000000
   72        6.284115   0.000000
   73        6.530028   0.000000
   74        6.608157   0.000000
   75        6.936979   0.000000
   76        7.092623   0.000000
   77        8.701556   0.000000
   78        9.842537   0.000000
   79       10.943463   0.000000
   80       13.420270   0.000000
   81       13.595056   0.000000
   82       15.384454   0.000000
   83       15.457593   0.000000
   84       16.107391   0.000000
   85       16.539912   0.000000
   86       16.663247   0.000000
   87       16.846111   0.000000
   88       17.022281   0.000000
   89       17.154122   0.000000
   90       17.789193   0.000000
   91       17.938014   0.000000
   92       18.114766   0.000000
   93       18.391354   0.000000
   94       19.143943   0.000000
   95       19.493855   0.000000
   96       19.607935   0.000000
   97       19.870811   0.000000
   98       19.911551   0.000000
   99       19.916898   0.000000
  100       20.024654   0.000000
  101       20.267617   0.000000
  102       20.443499   0.000000
  103       20.916622   0.000000
  104       21.411236   0.000000
  105       21.485015   0.000000
  106       21.806335   0.000000
  107       23.178659   0.000000
  108       23.357513   0.000000
  109       24.021641   0.000000
  110       24.172405   0.000000
  111       24.876929   0.000000
  112       25.048787   0.000000
  113       25.072385   0.000000
  114       25.247871   0.000000
  115       25.934997   0.000000
  116       26.035743   0.000000
  117       26.421237   0.000000
  118       26.665970   0.000000
  119       27.105029   0.000000
  120       27.160505   0.000000
  121       27.345514   0.000000
  122       27.458488   0.000000
  123       27.967646   0.000000
  124       28.188167   0.000000
  125       28.260331   0.000000
  126       28.417491   0.000000
  127       28.523605   0.000000
  128       28.973918   0.000000
 
  0.0000000E+00  0.6785345E-02  0.0000000E+00  0.1851852E-01
    1      -63.006063   1.000000
    2      -63.004174   1.000000
    3      -62.994044   1.000000
    4      -62.992154   1.000000
    5      -36.993573   1.000000
    6      -36.990144   1.000000
    7      -36.986022   1.000000
    8      -36.979630   1.000000
    9      -36.948727   1.000000
   10      -36.898106   1.000000
   11      -36.862149   1.000000
   12      -36.840518   1.000000
   13      -36.838124   1.000000
   14      -36.813764   1.000000
   15      -36.802675   1.000000
   16      -36.800248   1.000000
   17      -16.649030   1.000000
   18      -16.517363   1.000000
   19      -15.535307   1.000000
   20      -15.417986   1.000000
   21      -15.330867   1.000000
   22      -15.258012   1.000000
   23      -14.892812   1.000000
   24      -14.873239   1.000000
   25      -14.741812   1.000000
   26      -14.693625   1.000000
   27       -3.432464   1.000000
   28       -3.405039   1.000000
   29       -3.386678   1.000000
   30       -3.244168   1.000000
   31       -3.089541   1.000000
   32       -2.506474   1.000000
   33       -1.875778   1.000000
   34       -1.812667   1.000000
   35       -1.713578   1.000000
   36       -1.562055   1.000000
   37       -1.216102   1.000000
   38       -1.190637   1.000000
   39       -1.066069   1.000000
   40       -0.951618   1.000000
   41       -0.888288   1.000000
   42       -0.859457   1.000000
   43       -0.851518   1.000000
   44       -0.845090   1.000000
   45       -0.723687   1.000000
   46       -0.681335   1.000000
   47       -0.657493   1.000000
   48       -0.500058   1.000000
   49       -0.363421   1.000000
   50       -0.005137   1.000000
   51        0.022489   1.000000
   52        0.045158   1.000000
   53        0.107825   1.000000
   54        0.289192   1.000000
   55        0.400388   1.000000
   56        0.423409   1.000000
   57        2.807661   0.000000
   58        2.978776   0.000000
   59        4.225741   0.000000
   60        4.241952   0.000000
   61        4.310307   0.000000
   62        4.477179   0.000000
   63        4.660770   0.000000
   64        4.845694   0.000000
   65        5.173596   0.000000
   66        5.406836   0.000000
   67        5.454197   0.000000
   68        5.594616   0.000000
   69        5.722988   0.000000
   70        5.868803   0.000000
   71        6.205581   0.000000
   72        6.283997   0.000000
   73        6.528475   0.000000
   74        6.607522   0.000000
   75        6.937170   0.000000
   76        7.092833   0.000000
   77        8.700972   0.000000
   78        9.844736   0.000000
   79       10.940833   0.000000
   80       13.439279   0.000000
   81       13.576300   0.000000
   82       15.383866   0.000000
   83       15.458597   0.000000
   84       16.107199   0.000000
   85       16.541089   0.000000
   86       16.666685   0.000000
   87       16.845921   0.000000
   88       17.018162   0.000000
   89       17.154112   0.000000
   90       17.788344   0.000000
   91       17.938542   0.000000
   92       18.114559   0.000000
   93       18.391516   0.000000
   94       19.144660   0.000000
   95       19.493845   0.000000
   96       19.608175   0.000000
   97       19.870721   0.000000
   98       19.911480   0.000000
   99       19.916945   0.000000
  100       20.024348   0.000000
  101       20.267741   0.000000
  102       20.452535   0.000000
  103       20.905336   0.000000
  104       21.412754   0.000000
  105       21.482165   0.000000
  106       21.806805   0.000000
  107       23.178866   0.000000
  108       23.362519   0.000000
  109       24.024646   0.000000
  110       24.167141   0.000000
  111       24.876764   0.000000
  112       25.051518   0.000000
  113       25.070410   0.000000
  114       25.247159   0.000000
  115       25.948131   0.000000
  116       26.021053   0.000000
  117       26.424605   0.000000
  118       26.664194   0.000000
  119       27.104203   0.000000
  120       27.157414   0.000000
  121       27.345295   0.000000
  122       27.459142   0.000000
  123       27.969752   0.000000
  124       28.198082   0.000000
  125       28.258543   0.000000
  126       28.419591   0.000000
  127       28.522915   0.000000
  128       28.964941   0.000000
 
  0.0000000E+00  0.6785345E-02  0.1846900E-01  0.1851852E-01
    1      -63.006062   1.000000
    2      -63.004176   1.000000
    3      -62.994042   1.000000
    4      -62.992155   1.000000
    5      -36.993570   1.000000
    6      -36.990146   1.000000
    7      -36.986018   1.000000
    8      -36.979639   1.000000
    9      -36.948696   1.000000
   10      -36.898200   1.000000
   11      -36.862053   1.000000
   12      -36.840516   1.000000
   13      -36.838126   1.000000
   14      -36.813790   1.000000
   15      -36.802672   1.000000
   16      -36.800243   1.000000
   17      -16.648934   1.000000
   18      -16.517489   1.000000
   19      -15.535164   1.000000
   20      -15.418041   1.000000
   21      -15.330822   1.000000
   22      -15.258103   1.000000
   23      -14.892789   1.000000
   24      -14.873281   1.000000
   25      -14.741746   1.000000
   26      -14.693647   1.000000
   27       -3.432414   1.000000
   28       -3.405022   1.000000
   29       -3.386694   1.000000
   30       -3.244884   1.000000
   31       -3.088575   1.000000
   32       -2.507029   1.000000
   33       -1.875452   1.000000
   34       -1.812408   1.000000
   35       -1.713632   1.000000
   36       -1.562043   1.000000
   37       -1.216082   1.000000
   38       -1.190659   1.000000
   39       -1.067300   1.000000
   40       -0.950282   1.000000
   41       -0.889439   1.000000
   42       -0.859436   1.000000
   43       -0.850621   1.000000
   44       -0.845092   1.000000
   45       -0.723729   1.000000
   46       -0.681325   1.000000
   47       -0.657522   1.000000
   48       -0.500723   1.000000
   49       -0.362781   1.000000
   50       -0.005113   1.000000
   51        0.022466   1.000000
   52        0.043888   1.000000
   53        0.109011   1.000000
   54        0.289415   1.000000
   55        0.400279   1.000000
   56        0.423329   1.000000
   57        2.807796   0.000000
   58        2.978619   0.000000
   59        4.225826   0.000000
   60        4.242194   0.000000
   61        4.310249   0.000000
   62        4.477370   0.000000
   63        4.660654   0.000000
   64        4.843982   0.000000
   65        5.175363   0.000000
   66        5.406861   0.000000
   67        5.454122   0.000000
   68        5.594758   0.000000
   69        5.722896   0.000000
   70        5.869084   0.000000
   71        6.203055   0.000000
   72        6.284115   0.000000
   73        6.530028   0.000000
   74        6.608157   0.000000
   75        6.936979   0.000000
   76        7.092623   0.000000
   77        8.701556   0.000000
   78        9.842537   0.000000
   79       10.943463   0.000000
   80       13.420270   0.000000
   81       13.595056   0.000000
   82       15.384454   0.000000
   83       15.457593   0.000000
   84       16.107391   0.000000
   85       16.539912   0.000000
   86       16.663247   0.000000
   87       16.846111   0.000000
   88       17.022281   0.000000
   89       17.154122   0.000000
   90       17.789193   0.000000
   91       17.938014   0.000000
   92       18.114766   0.000000
   93       18.391354   0.000000
   94       19.143943   0.000000
   95       19.493855   0.000000
   96       19.607935   0.000000
   97       19.870811   0.000000
   98       19.911551   0.000000
   99       19.916898   0.000000
  100       20.024654   0.000000
  101       20.267617   0.000000
  102       20.443499   0.000000
  103       20.916622   0.000000
  104       21.411236   0.000000
  105       21.485015   0.000000
  106       21.806335   0.000000
  107       23.178659   0.000000
  108       23.357513   0.000000
  109       24.021641   0.000000
  110       24.172405   0.000000
  111       24.876929   0.000000
  112       25.048787   0.000000
  113       25.072385   0.000000
  114       25.247871   0.000000
  115       25.934997   0.000000
  116       26.035743   0.000000
  117       26.421237   0.000000
  118       26.665970   0.000000
  119       27.105029   0.000000
  120       27.160505   0.000000
  121       27.345514   0.000000
  122       27.458488   0.000000
  123       27.967646   0.000000
  124       28.188167   0.000000
  125       28.260331   0.000000
  126       28.417491   0.000000
  127       28.523605   0.000000
  128       28.973919   0.000000
 
  0.5652785E-02 -0.6785345E-02 -0.1846900E-01  0.1851852E-01
    1      -63.006060   1.000000
    2      -63.004174   1.000000
    3      -62.994042   1.000000
    4      -62.992155   1.000000
    5      -36.993568   1.000000
    6      -36.990145   1.000000
    7      -36.986017   1.000000
    8      -36.979638   1.000000
    9      -36.948694   1.000000
   10      -36.898201   1.000000
   11      -36.862083   1.000000
   12      -36.840509   1.000000
   13      -36.838165   1.000000
   14      -36.813775   1.000000
   15      -36.802689   1.000000
   16      -36.800258   1.000000
   17      -16.648725   1.000000
   18      -16.517278   1.000000
   19      -15.535069   1.000000
   20      -15.417947   1.000000
   21      -15.330807   1.000000
   22      -15.258083   1.000000
   23      -14.892766   1.000000
   24      -14.873260   1.000000
   25      -14.741764   1.000000
   26      -14.693659   1.000000
   27       -3.432303   1.000000
   28       -3.405568   1.000000
   29       -3.387401   1.000000
   30       -3.244781   1.000000
   31       -3.088270   1.000000
   32       -2.506934   1.000000
   33       -1.875227   1.000000
   34       -1.812350   1.000000
   35       -1.713577   1.000000
   36       -1.562073   1.000000
   37       -1.217183   1.000000
   38       -1.191670   1.000000
   39       -1.067132   1.000000
   40       -0.950106   1.000000
   41       -0.889068   1.000000
   42       -0.859853   1.000000
   43       -0.851206   1.000000
   44       -0.844506   1.000000
   45       -0.723488   1.000000
   46       -0.681519   1.000000
   47       -0.657805   1.000000
   48       -0.500164   1.000000
   49       -0.362830   1.000000
   50       -0.005481   1.000000
   51        0.022150   1.000000
   52        0.044429   1.000000
   53        0.109282   1.000000
   54        0.289568   1.000000
   55        0.400615   1.000000
   56        0.423335   1.000000
   57        2.808035   0.000000
   58        2.978881   0.000000
   59        4.225985   0.000000
   60        4.242169   0.000000
   61        4.310096   0.000000
   62        4.477661   0.000000
   63        4.660542   0.000000
   64        4.844043   0.000000
   65        5.174758   0.000000
   66        5.405296   0.000000
   67        5.452416   0.000000
   68        5.593287   0.000000
   69        5.722952   0.000000
   70        5.869142   0.000000
   71        6.204130   0.000000
   72        6.284812   0.000000
   73        6.530574   0.000000
   74        6.608028   0.000000
   75        6.936918   0.000000
   76        7.093709   0.000000
   77        8.702195   0.000000
   78        9.842971   0.000000
   79       10.943960   0.000000
   80       13.420574   0.000000
   81       13.595522   0.000000
   82       15.384978   0.000000
   83       15.458041   0.000000
   84       16.107436   0.000000
   85       16.539855   0.000000
   86       16.663425   0.000000
   87       16.845551   0.000000
   88       17.022662   0.000000
   89       17.154228   0.000000
   90       17.789220   0.000000
   91       17.936872   0.000000
   92       18.114859   0.000000
   93       18.391320   0.000000
   94       19.143202   0.000000
   95       19.492914   0.000000
   96       19.605810   0.000000
   97       19.869146   0.000000
   98       19.913060   0.000000
   99       19.917078   0.000000
  100       20.024533   0.000000
  101       20.268259   0.000000
  102       20.444210   0.000000
  103       20.917754   0.000000
  104       21.410389   0.000000
  105       21.484761   0.000000
  106       21.806001   0.000000
  107       23.181429   0.000000
  108       23.356119   0.000000
  109       24.022855   0.000000
  110       24.170903   0.000000
  111       24.875820   0.000000
  112       25.048755   0.000000
  113       25.073203   0.000000
  114       25.247310   0.000000
  115       25.936163   0.000000
  116       26.036108   0.000000
  117       26.422321   0.000000
  118       26.665063   0.000000
  119       27.104942   0.000000
  120       27.161953   0.000000
  121       27.346795   0.000000
  122       27.457763   0.000000
  123       27.969082   0.000000
  124       28.190130   0.000000
  125       28.261508   0.000000
  126       28.414583   0.000000
  127       28.520154   0.000000
  128       28.979310   0.000000
 
  0.5652785E-02 -0.6785345E-02  0.0000000E+00  0.1851852E-01
    1      -63.006061   1.000000
    2      -63.004172   1.000000
    3      -62.994044   1.000000
    4      -62.992154   1.000000
    5      -36.993571   1.000000
    6      -36.990143   1.000000
    7      -36.986021   1.000000
    8      -36.979630   1.000000
    9      -36.948727   1.000000
   10      -36.898106   1.000000
   11      -36.862179   1.000000
   12      -36.840511   1.000000
   13      -36.838165   1.000000
   14      -36.813750   1.000000
   15      -36.802692   1.000000
   16      -36.800256   1.000000
   17      -16.648834   1.000000
   18      -16.517150   1.000000
   19      -15.535212   1.000000
   20      -15.417899   1.000000
   21      -15.330841   1.000000
   22      -15.257993   1.000000
   23      -14.892769   1.000000
   24      -14.873225   1.000000
   25      -14.741842   1.000000
   26      -14.693633   1.000000
   27       -3.432351   1.000000
   28       -3.405584   1.000000
   29       -3.387386   1.000000
   30       -3.244069   1.000000
   31       -3.089234   1.000000
   32       -2.506378   1.000000
   33       -1.875553   1.000000
   34       -1.812609   1.000000
   35       -1.713523   1.000000
   36       -1.562085   1.000000
   37       -1.217203   1.000000
   38       -1.191647   1.000000
   39       -1.065902   1.000000
   40       -0.951440   1.000000
   41       -0.887907   1.000000
   42       -0.859876   1.000000
   43       -0.852045   1.000000
   44       -0.844570   1.000000
   45       -0.723447   1.000000
   46       -0.681529   1.000000
   47       -0.657776   1.000000
   48       -0.499495   1.000000
   49       -0.363475   1.000000
   50       -0.005506   1.000000
   51        0.022173   1.000000
   52        0.045701   1.000000
   53        0.108094   1.000000
   54        0.289344   1.000000
   55        0.400727   1.000000
   56        0.423412   1.000000
   57        2.807901   0.000000
   58        2.979036   0.000000
   59        4.225903   0.000000
   60        4.241923   0.000000
   61        4.310155   0.000000
   62        4.477472   0.000000
   63        4.660657   0.000000
   64        4.845756   0.000000
   65        5.172991   0.000000
   66        5.405271   0.000000
   67        5.452490   0.000000
   68        5.593145   0.000000
   69        5.723044   0.000000
   70        5.868861   0.000000
   71        6.206649   0.000000
   72        6.284703   0.000000
   73        6.529014   0.000000
   74        6.607392   0.000000
   75        6.937108   0.000000
   76        7.093920   0.000000
   77        8.701610   0.000000
   78        9.845171   0.000000
   79       10.941331   0.000000
   80       13.439546   0.000000
   81       13.576787   0.000000
   82       15.384391   0.000000
   83       15.459046   0.000000
   84       16.107242   0.000000
   85       16.541025   0.000000
   86       16.666866   0.000000
   87       16.845360   0.000000
   88       17.018551   0.000000
   89       17.154218   0.000000
   90       17.788394   0.000000
   91       17.937387   0.000000
   92       18.114653   0.000000
   93       18.391475   0.000000
   94       19.143916   0.000000
   95       19.492906   0.000000
   96       19.606048   0.000000
   97       19.869061   0.000000
   98       19.912999   0.000000
   99       19.917127   0.000000
  100       20.024222   0.000000
  101       20.268397   0.000000
  102       20.453193   0.000000
  103       20.906502   0.000000
  104       21.411954   0.000000
  105       21.481925   0.000000
  106       21.806468   0.000000
  107       23.181640   0.000000
  108       23.361118   0.000000
  109       24.025862   0.000000
  110       24.165627   0.000000
  111       24.875691   0.000000
  112       25.051620   0.000000
  113       25.071063   0.000000
  114       25.246601   0.000000
  115       25.949365   0.000000
  116       26.021333   0.000000
  117       26.425715   0.000000
  118       26.663262   0.000000
  119       27.104105   0.000000
  120       27.158881   0.000000
  121       27.346576   0.000000
  122       27.458417   0.000000
  123       27.971189   0.000000
  124       28.200239   0.000000
  125       28.259713   0.000000
  126       28.416758   0.000000
  127       28.519045   0.000000
  128       28.970625   0.000000
 
  0.5652785E-02 -0.6785345E-02  0.1846900E-01  0.1851852E-01
    1      -63.006060   1.000000
    2      -63.004174   1.000000
    3      -62.994042   1.000000
    4      -62.992155   1.000000
    5      -36.993568   1.000000
    6      -36.990145   1.000000
    7      -36.986017   1.000000
    8      -36.979638   1.000000
    9      -36.948694   1.000000
   10      -36.898201   1.000000
   11      -36.862083   1.000000
   12      -36.840509   1.000000
   13      -36.838165   1.000000
   14      -36.813775   1.000000
   15      -36.802689   1.000000
   16      -36.800258   1.000000
   17      -16.648725   1.000000
   18      -16.517278   1.000000
   19      -15.535069   1.000000
   20      -15.417947   1.000000
   21      -15.330807   1.000000
   22      -15.258083   1.000000
   23      -14.892766   1.000000
   24      -14.873260   1.000000
   25      -14.741764   1.000000
   26      -14.693659   1.000000
   27       -3.432303   1.000000
   28       -3.405568   1.000000
   29       -3.387401   1.000000
   30       -3.244781   1.000000
   31       -3.088270   1.000000
   32       -2.506934   1.000000
   33       -1.875227   1.000000
   34       -1.812350   1.000000
   35       -1.713577   1.000000
   36       -1.562073   1.000000
   37       -1.217183   1.000000
   38       -1.191670   1.000000
   39       -1.067132   1.000000
   40       -0.950106   1.000000
   41       -0.889068   1.000000
   42       -0.859853   1.000000
   43       -0.851206   1.000000
   44       -0.844506   1.000000
   45       -0.723488   1.000000
   46       -0.681519   1.000000
   47       -0.657805   1.000000
   48       -0.500164   1.000000
   49       -0.362830   1.000000
   50       -0.005481   1.000000
   51        0.022150   1.000000
   52        0.044429   1.000000
   53        0.109282   1.000000
   54        0.289568   1.000000
   55        0.400615   1.000000
   56        0.423335   1.000000
   57        2.808035   0.000000
   58        2.978881   0.000000
   59        4.225985   0.000000
   60        4.242169   0.000000
   61        4.310096   0.000000
   62        4.477661   0.000000
   63        4.660542   0.000000
   64        4.844043   0.000000
   65        5.174758   0.000000
   66        5.405296   0.000000
   67        5.452416   0.000000
   68        5.593287   0.000000
   69        5.722952   0.000000
   70        5.869142   0.000000
   71        6.204130   0.000000
   72        6.284812   0.000000
   73        6.530574   0.000000
   74        6.608028   0.000000
   75        6.936918   0.000000
   76        7.093709   0.000000
   77        8.702195   0.000000
   78        9.842971   0.000000
   79       10.943960   0.000000
   80       13.420574   0.000000
   81       13.595522   0.000000
   82       15.384978   0.000000
   83       15.458041   0.000000
   84       16.107436   0.000000
   85       16.539855   0.000000
   86       16.663425   0.000000
   87       16.845551   0.000000
   88       17.022662   0.000000
   89       17.154228   0.000000
   90       17.789220   0.000000
   91       17.936872   0.000000
   92       18.114859   0.000000
   93       18.391320   0.000000
   94       19.143202   0.000000
   95       19.492914   0.000000
   96       19.605810   0.000000
   97       19.869146   0.000000
   98       19.913060   0.000000
   99       19.917078   0.000000
  100       20.024533   0.000000
  101       20.268259   0.000000
  102       20.444210   0.000000
  103       20.917754   0.000000
  104       21.410389   0.000000
  105       21.484761   0.000000
  106       21.806001   0.000000
  107       23.181429   0.000000
  108       23.356119   0.000000
  109       24.022855   0.000000
  110       24.170903   0.000000
  111       24.875820   0.000000
  112       25.048755   0.000000
  113       25.073203   0.000000
  114       25.247310   0.000000
  115       25.936163   0.000000
  116       26.036108   0.000000
  117       26.422321   0.000000
  118       26.665063   0.000000
  119       27.104942   0.000000
  120       27.161953   0.000000
  121       27.346795   0.000000
  122       27.457763   0.000000
  123       27.969082   0.000000
  124       28.190130   0.000000
  125       28.261508   0.000000
  126       28.414583   0.000000
  127       28.520154   0.000000
  128       28.979319   0.000000
 
  0.5652785E-02  0.0000000E+00 -0.1846900E-01  0.1851852E-01
    1      -63.006060   1.000000
    2      -63.004174   1.000000
    3      -62.994042   1.000000
    4      -62.992155   1.000000
    5      -36.993565   1.000000
    6      -36.990143   1.000000
    7      -36.986014   1.000000
    8      -36.979635   1.000000
    9      -36.948694   1.000000
   10      -36.898201   1.000000
   11      -36.862083   1.000000
   12      -36.840509   1.000000
   13      -36.838166   1.000000
   14      -36.813775   1.000000
   15      -36.802689   1.000000
   16      -36.800257   1.000000
   17      -16.648784   1.000000
   18      -16.517333   1.000000
   19      -15.535131   1.000000
   20      -15.417985   1.000000
   21      -15.330810   1.000000
   22      -15.258098   1.000000
   23      -14.892788   1.000000
   24      -14.873261   1.000000
   25      -14.741815   1.000000
   26      -14.693678   1.000000
   27       -3.432283   1.000000
   28       -3.405534   1.000000
   29       -3.387368   1.000000
   30       -3.244751   1.000000
   31       -3.088206   1.000000
   32       -2.506854   1.000000
   33       -1.872946   1.000000
   34       -1.812836   1.000000
   35       -1.712399   1.000000
   36       -1.561354   1.000000
   37       -1.216761   1.000000
   38       -1.191298   1.000000
   39       -1.066963   1.000000
   40       -0.950495   1.000000
   41       -0.888175   1.000000
   42       -0.859473   1.000000
   43       -0.851585   1.000000
   44       -0.844822   1.000000
   45       -0.724055   1.000000
   46       -0.681829   1.000000
   47       -0.658225   1.000000
   48       -0.501108   1.000000
   49       -0.362642   1.000000
   50       -0.005537   1.000000
   51        0.022136   1.000000
   52        0.044248   1.000000
   53        0.109225   1.000000
   54        0.289147   1.000000
   55        0.400594   1.000000
   56        0.423072   1.000000
   57        2.807955   0.000000
   58        2.978784   0.000000
   59        4.225936   0.000000
   60        4.242012   0.000000
   61        4.310030   0.000000
   62        4.477614   0.000000
   63        4.660441   0.000000
   64        4.843833   0.000000
   65        5.174789   0.000000
   66        5.405258   0.000000
   67        5.452391   0.000000
   68        5.593261   0.000000
   69        5.722926   0.000000
   70        5.868572   0.000000
   71        6.203950   0.000000
   72        6.284387   0.000000
   73        6.530542   0.000000
   74        6.607607   0.000000
   75        6.936579   0.000000
   76        7.093566   0.000000
   77        8.701468   0.000000
   78        9.842630   0.000000
   79       10.943426   0.000000
   80       13.420295   0.000000
   81       13.595203   0.000000
   82       15.388618   0.000000
   83       15.457635   0.000000
   84       16.106339   0.000000
   85       16.569351   0.000000
   86       16.634131   0.000000
   87       16.844392   0.000000
   88       17.023911   0.000000
   89       17.154215   0.000000
   90       17.789698   0.000000
   91       17.936207   0.000000
   92       18.114212   0.000000
   93       18.391019   0.000000
   94       19.142938   0.000000
   95       19.493136   0.000000
   96       19.606162   0.000000
   97       19.871091   0.000000
   98       19.915469   0.000000
   99       19.917776   0.000000
  100       20.022661   0.000000
  101       20.268014   0.000000
  102       20.442537   0.000000
  103       20.917266   0.000000
  104       21.410976   0.000000
  105       21.485104   0.000000
  106       21.805365   0.000000
  107       23.181007   0.000000
  108       23.357087   0.000000
  109       24.022776   0.000000
  110       24.170847   0.000000
  111       24.873790   0.000000
  112       25.051836   0.000000
  113       25.069106   0.000000
  114       25.248215   0.000000
  115       25.936541   0.000000
  116       26.035158   0.000000
  117       26.422427   0.000000
  118       26.665096   0.000000
  119       27.105436   0.000000
  120       27.173305   0.000000
  121       27.339475   0.000000
  122       27.459080   0.000000
  123       27.967250   0.000000
  124       28.189902   0.000000
  125       28.262119   0.000000
  126       28.414053   0.000000
  127       28.521016   0.000000
  128       28.979075   0.000000
 
  0.5652785E-02  0.0000000E+00  0.0000000E+00  0.1851852E-01
    1      -63.006061   1.000000
    2      -63.004172   1.000000
    3      -62.994044   1.000000
    4      -62.992154   1.000000
    5      -36.993568   1.000000
    6      -36.990139   1.000000
    7      -36.986017   1.000000
    8      -36.979626   1.000000
    9      -36.948726   1.000000
   10      -36.898106   1.000000
   11      -36.862179   1.000000
   12      -36.840511   1.000000
   13      -36.838162   1.000000
   14      -36.813750   1.000000
   15      -36.802692   1.000000
   16      -36.800256   1.000000
   17      -16.648888   1.000000
   18      -16.517204   1.000000
   19      -15.535274   1.000000
   20      -15.417912   1.000000
   21      -15.330844   1.000000
   22      -15.258005   1.000000
   23      -14.892791   1.000000
   24      -14.873215   1.000000
   25      -14.741892   1.000000
   26      -14.693652   1.000000
   27       -3.432331   1.000000
   28       -3.405550   1.000000
   29       -3.387349   1.000000
   30       -3.244039   1.000000
   31       -3.089171   1.000000
   32       -2.506297   1.000000
   33       -1.873272   1.000000
   34       -1.813094   1.000000
   35       -1.712345   1.000000
   36       -1.561365   1.000000
   37       -1.216781   1.000000
   38       -1.191274   1.000000
   39       -1.065727   1.000000
   40       -0.951838   1.000000
   41       -0.886974   1.000000
   42       -0.859494   1.000000
   43       -0.852458   1.000000
   44       -0.844888   1.000000
   45       -0.724013   1.000000
   46       -0.681839   1.000000
   47       -0.658197   1.000000
   48       -0.500442   1.000000
   49       -0.363283   1.000000
   50       -0.005562   1.000000
   51        0.022159   1.000000
   52        0.045516   1.000000
   53        0.108041   1.000000
   54        0.288923   1.000000
   55        0.400706   1.000000
   56        0.423149   1.000000
   57        2.807821   0.000000
   58        2.978940   0.000000
   59        4.225856   0.000000
   60        4.241766   0.000000
   61        4.310089   0.000000
   62        4.477425   0.000000
   63        4.660556   0.000000
   64        4.845545   0.000000
   65        5.173024   0.000000
   66        5.405233   0.000000
   67        5.452465   0.000000
   68        5.593126   0.000000
   69        5.723018   0.000000
   70        5.868292   0.000000
   71        6.206467   0.000000
   72        6.284280   0.000000
   73        6.528982   0.000000
   74        6.606971   0.000000
   75        6.936773   0.000000
   76        7.093778   0.000000
   77        8.700884   0.000000
   78        9.844830   0.000000
   79       10.940796   0.000000
   80       13.439286   0.000000
   81       13.576465   0.000000
   82       15.388015   0.000000
   83       15.458657   0.000000
   84       16.106147   0.000000
   85       16.569917   0.000000
   86       16.638126   0.000000
   87       16.844171   0.000000
   88       17.019864   0.000000
   89       17.154233   0.000000
   90       17.788869   0.000000
   91       17.936716   0.000000
   92       18.114007   0.000000
   93       18.391195   0.000000
   94       19.143654   0.000000
   95       19.493129   0.000000
   96       19.606400   0.000000
   97       19.870999   0.000000
   98       19.915404   0.000000
   99       19.917844   0.000000
  100       20.022330   0.000000
  101       20.268153   0.000000
  102       20.451520   0.000000
  103       20.906017   0.000000
  104       21.412568   0.000000
  105       21.482250   0.000000
  106       21.805839   0.000000
  107       23.181219   0.000000
  108       23.362101   0.000000
  109       24.025805   0.000000
  110       24.165553   0.000000
  111       24.873665   0.000000
  112       25.056327   0.000000
  113       25.065312   0.000000
  114       25.247527   0.000000
  115       25.950030   0.000000
  116       26.020129   0.000000
  117       26.425840   0.000000
  118       26.663293   0.000000
  119       27.104545   0.000000
  120       27.170202   0.000000
  121       27.339348   0.000000
  122       27.459763   0.000000
  123       27.969349   0.000000
  124       28.200021   0.000000
  125       28.260334   0.000000
  126       28.416233   0.000000
  127       28.519908   0.000000
  128       28.970401   0.000000
 
  0.5652785E-02  0.0000000E+00  0.1846900E-01  0.1851852E-01
    1      -63.006060   1.000000
    2      -63.004174   1.000000
    3      -62.994042   1.000000
    4      -62.992155   1.000000
    5      -36.993565   1.000000
    6      -36.990143   1.000000
    7      -36.986014   1.000000
    8      -36.979635   1.000000
    9      -36.948694   1.000000
   10      -36.898201   1.000000
   11      -36.862083   1.000000
   12      -36.840509   1.000000
   13      -36.838166   1.000000
   14      -36.813775   1.000000
   15      -36.802689   1.000000
   16      -36.800257   1.000000
   17      -16.648784   1.000000
   18      -16.517333   1.000000
   19      -15.535131   1.000000
   20      -15.417985   1.000000
   21      -15.330810   1.000000
   22      -15.258098   1.000000
   23      -14.892788   1.000000
   24      -14.873261   1.000000
   25      -14.741815   1.000000
   26      -14.693678   1.000000
   27       -3.432283   1.000000
   28       -3.405534   1.000000
   29       -3.387368   1.000000
   30       -3.244751   1.000000
   31       -3.088206   1.000000
   32       -2.506854   1.000000
   33       -1.872946   1.000000
   34       -1.812836   1.000000
   35       -1.712399   1.000000
   36       -1.561354   1.000000
   37       -1.216761   1.000000
   38       -1.191298   1.000000
   39       -1.066963   1.000000
   40       -0.950495   1.000000
   41       -0.888175   1.000000
   42       -0.859473   1.000000
   43       -0.851585   1.000000
   44       -0.844822   1.000000
   45       -0.724055   1.000000
   46       -0.681829   1.000000
   47       -0.658225   1.000000
   48       -0.501108   1.000000
   49       -0.362642   1.000000
   50       -0.005537   1.000000
   51        0.022136   1.000000
   52        0.044248   1.000000
   53        0.109225   1.000000
   54        0.289147   1.000000
   55        0.400594   1.000000
   56        0.423072   1.000000
   57        2.807955   0.000000
   58        2.978784   0.000000
   59        4.225936   0.000000
   60        4.242012   0.000000
   61        4.310030   0.000000
   62        4.477614   0.000000
   63        4.660441   0.000000
   64        4.843833   0.000000
   65        5.174789   0.000000
   66        5.405258   0.000000
   67        5.452391   0.000000
   68        5.593261   0.000000
   69        5.722926   0.000000
   70        5.868572   0.000000
   71        6.203950   0.000000
   72        6.284387   0.000000
   73        6.530542   0.000000
   74        6.607607   0.000000
   75        6.936579   0.000000
   76        7.093566   0.000000
   77        8.701468   0.000000
   78        9.842630   0.000000
   79       10.943426   0.000000
   80       13.420295   0.000000
   81       13.595203   0.000000
   82       15.388618   0.000000
   83       15.457635   0.000000
   84       16.106339   0.000000
   85       16.569351   0.000000
   86       16.634131   0.000000
   87       16.844392   0.000000
   88       17.023911   0.000000
   89       17.154215   0.000000
   90       17.789698   0.000000
   91       17.936207   0.000000
   92       18.114212   0.000000
   93       18.391019   0.000000
   94       19.142938   0.000000
   95       19.493136   0.000000
   96       19.606162   0.000000
   97       19.871091   0.000000
   98       19.915469   0.000000
   99       19.917776   0.000000
  100       20.022661   0.000000
  101       20.268014   0.000000
  102       20.442537   0.000000
  103       20.917266   0.000000
  104       21.410976   0.000000
  105       21.485104   0.000000
  106       21.805365   0.000000
  107       23.181007   0.000000
  108       23.357087   0.000000
  109       24.022776   0.000000
  110       24.170847   0.000000
  111       24.873790   0.000000
  112       25.051836   0.000000
  113       25.069106   0.000000
  114       25.248215   0.000000
  115       25.936541   0.000000
  116       26.035158   0.000000
  117       26.422427   0.000000
  118       26.665096   0.000000
  119       27.105436   0.000000
  120       27.173305   0.000000
  121       27.339475   0.000000
  122       27.459080   0.000000
  123       27.967250   0.000000
  124       28.189902   0.000000
  125       28.262119   0.000000
  126       28.414053   0.000000
  127       28.521016   0.000000
  128       28.979045   0.000000
 
  0.5652785E-02  0.6785345E-02 -0.1846900E-01  0.1851852E-01
    1      -63.006060   1.000000
    2      -63.004174   1.000000
    3      -62.994042   1.000000
    4      -62.992155   1.000000
    5      -36.993568   1.000000
    6      -36.990145   1.000000
    7      -36.986017   1.000000
    8      -36.979638   1.000000
    9      -36.948694   1.000000
   10      -36.898201   1.000000
   11      -36.862083   1.000000
   12      -36.840509   1.000000
   13      -36.838165   1.000000
   14      -36.813775   1.000000
   15      -36.802689   1.000000
   16      -36.800258   1.000000
   17      -16.648725   1.000000
   18      -16.517278   1.000000
   19      -15.535069   1.000000
   20      -15.417947   1.000000
   21      -15.330807   1.000000
   22      -15.258083   1.000000
   23      -14.892766   1.000000
   24      -14.873260   1.000000
   25      -14.741764   1.000000
   26      -14.693659   1.000000
   27       -3.432303   1.000000
   28       -3.405568   1.000000
   29       -3.387401   1.000000
   30       -3.244781   1.000000
   31       -3.088270   1.000000
   32       -2.506934   1.000000
   33       -1.875227   1.000000
   34       -1.812350   1.000000
   35       -1.713577   1.000000
   36       -1.562073   1.000000
   37       -1.217183   1.000000
   38       -1.191670   1.000000
   39       -1.067132   1.000000
   40       -0.950106   1.000000
   41       -0.889068   1.000000
   42       -0.859853   1.000000
   43       -0.851206   1.000000
   44       -0.844506   1.000000
   45       -0.723488   1.000000
   46       -0.681519   1.000000
   47       -0.657805   1.000000
   48       -0.500164   1.000000
   49       -0.362830   1.000000
   50       -0.005481   1.000000
   51        0.022150   1.000000
   52        0.044429   1.000000
   53        0.109282   1.000000
   54        0.289568   1.000000
   55        0.400615   1.000000
   56        0.423335   1.000000
   57        2.808035   0.000000
   58        2.978881   0.000000
   59        4.225985   0.000000
   60        4.242169   0.000000
   61        4.310096   0.000000
   62        4.477661   0.000000
   63        4.660542   0.000000
   64        4.844043   0.000000
   65        5.174758   0.000000
   66        5.405296   0.000000
   67        5.452416   0.000000
   68        5.593287   0.000000
   69        5.722952   0.000000
   70        5.869142   0.000000
   71        6.204130   0.000000
   72        6.284812   0.000000
   73        6.530574   0.000000
   74        6.608028   0.000000
   75        6.936918   0.000000
   76        7.093709   0.000000
   77        8.702195   0.000000
   78        9.842971   0.000000
   79       10.943960   0.000000
   80       13.420574   0.000000
   81       13.595522   0.000000
   82       15.384978   0.000000
   83       15.458041   0.000000
   84       16.107436   0.000000
   85       16.539855   0.000000
   86       16.663425   0.000000
   87       16.845551   0.000000
   88       17.022662   0.000000
   89       17.154228   0.000000
   90       17.789220   0.000000
   91       17.936872   0.000000
   92       18.114859   0.000000
   93       18.391320   0.000000
   94       19.143202   0.000000
   95       19.492914   0.000000
   96       19.605810   0.000000
   97       19.869146   0.000000
   98       19.913060   0.000000
   99       19.917078   0.000000
  100       20.024533   0.000000
  101       20.268259   0.000000
  102       20.444210   0.000000
  103       20.917754   0.000000
  104       21.410389   0.000000
  105       21.484761   0.000000
  106       21.806001   0.000000
  107       23.181429   0.000000
  108       23.356119   0.000000
  109       24.022855   0.000000
  110       24.170903   0.000000
  111       24.875820   0.000000
  112       25.048755   0.000000
  113       25.073203   0.000000
  114       25.247310   0.000000
  115       25.936163   0.000000
  116       26.036108   0.000000
  117       26.422321   0.000000
  118       26.665063   0.000000
  119       27.104942   0.000000
  120       27.161953   0.000000
  121       27.346795   0.000000
  122       27.457763   0.000000
  123       27.969082   0.000000
  124       28.190130   0.000000
  125       28.261508   0.000000
  126       28.414583   0.000000
  127       28.520154   0.000000
  128       28.979311   0.000000
 
  0.5652785E-02  0.6785345E-02  0.0000000E+00  0.1851852E-01
    1      -63.006061   1.000000
    2      -63.004172   1.000000
    3      -62.994044   1.000000
    4      -62.992154   1.000000
    5      -36.993571   1.000000
    6      -36.990143   1.000000
    7      -36.986021   1.000000
    8      -36.979630   1.000000
    9      -36.948727   1.000000
   10      -36.898106   1.000000
   11      -36.862179   1.000000
   12      -36.840511   1.000000
   13      -36.838165   1.000000
   14      -36.813750   1.000000
   15      -36.802692   1.000000
   16      -36.800256   1.000000
   17      -16.648834   1.000000
   18      -16.517150   1.000000
   19      -15.535212   1.000000
   20      -15.417899   1.000000
   21      -15.330841   1.000000
   22      -15.257993   1.000000
   23      -14.892769   1.000000
   24      -14.873225   1.000000
   25      -14.741842   1.000000
   26      -14.693633   1.000000
   27       -3.432351   1.000000
   28       -3.405584   1.000000
   29       -3.387386   1.000000
   30       -3.244069   1.000000
   31       -3.089234   1.000000
   32       -2.506378   1.000000
   33       -1.875553   1.000000
   34       -1.812609   1.000000
   35       -1.713523   1.000000
   36       -1.562085   1.000000
   37       -1.217203   1.000000
   38       -1.191647   1.000000
   39       -1.065902   1.000000
   40       -0.951440   1.000000
   41       -0.887907   1.000000
   42       -0.859876   1.000000
   43       -0.852045   1.000000
   44       -0.844570   1.000000
   45       -0.723447   1.000000
   46       -0.681529   1.000000
   47       -0.657776   1.000000
   48       -0.499495   1.000000
   49       -0.363475   1.000000
   50       -0.005506   1.000000
   51        0.022173   1.000000
   52        0.045701   1.000000
   53        0.108094   1.000000
   54        0.289344   1.000000
   55        0.400727   1.000000
   56        0.423412   1.000000
   57        2.807901   0.000000
   58        2.979036   0.000000
   59        4.225903   0.000000
   60        4.241923   0.000000
   61        4.310155   0.000000
   62        4.477472   0.000000
   63        4.660657   0.000000
   64        4.845756   0.000000
   65        5.172991   0.000000
   66        5.405271   0.000000
   67        5.452490   0.000000
   68        5.593145   0.000000
   69        5.723044   0.000000
   70        5.868861   0.000000
   71        6.206649   0.000000
   72        6.284703   0.000000
   73        6.529014   0.000000
   74        6.607392   0.000000
   75        6.937108   0.000000
   76        7.093920   0.000000
   77        8.701610   0.000000
   78        9.845171   0.000000
   79       10.941331   0.000000
   80       13.439546   0.000000
   81       13.576787   0.000000
   82       15.384391   0.000000
   83       15.459046   0.000000
   84       16.107242   0.000000
   85       16.541025   0.000000
   86       16.666866   0.000000
   87       16.845360   0.000000
   88       17.018551   0.000000
   89       17.154218   0.000000
   90       17.788394   0.000000
   91       17.937387   0.000000
   92       18.114653   0.000000
   93       18.391475   0.000000
   94       19.143916   0.000000
   95       19.492906   0.000000
   96       19.606048   0.000000
   97       19.869061   0.000000
   98       19.912999   0.000000
   99       19.917127   0.000000
  100       20.024222   0.000000
  101       20.268397   0.000000
  102       20.453193   0.000000
  103       20.906502   0.000000
  104       21.411954   0.000000
  105       21.481925   0.000000
  106       21.806468   0.000000
  107       23.181640   0.000000
  108       23.361118   0.000000
  109       24.025862   0.000000
  110       24.165627   0.000000
  111       24.875691   0.000000
  112       25.051620   0.000000
  113       25.071063   0.000000
  114       25.246601   0.000000
  115       25.949365   0.000000
  116       26.021333   0.000000
  117       26.425715   0.000000
  118       26.663262   0.000000
  119       27.104105   0.000000
  120       27.158881   0.000000
  121       27.346576   0.000000
  122       27.458417   0.000000
  123       27.971189   0.000000
  124       28.200239   0.000000
  125       28.259713   0.000000
  126       28.416758   0.000000
  127       28.519045   0.000000
  128       28.970642   0.000000
 
  0.5652785E-02  0.6785345E-02  0.1846900E-01  0.1851852E-01
    1      -63.006060   1.000000
    2      -63.004174   1.000000
    3      -62.994042   1.000000
    4      -62.992155   1.000000
    5      -36.993568   1.000000
    6      -36.990145   1.000000
    7      -36.986017   1.000000
    8      -36.979638   1.000000
    9      -36.948694   1.000000
   10      -36.898201   1.000000
   11      -36.862083   1.000000
   12      -36.840509   1.000000
   13      -36.838165   1.000000
   14      -36.813775   1.000000
   15      -36.802689   1.000000
   16      -36.800258   1.000000
   17      -16.648725   1.000000
   18      -16.517278   1.000000
   19      -15.535069   1.000000
   20      -15.417947   1.000000
   21      -15.330807   1.000000
   22      -15.258083   1.000000
   23      -14.892766   1.000000
   24      -14.873260   1.000000
   25      -14.741764   1.000000
   26      -14.693659   1.000000
   27       -3.432303   1.000000
   28       -3.405568   1.000000
   29       -3.387401   1.000000
   30       -3.244781   1.000000
   31       -3.088270   1.000000
   32       -2.506934   1.000000
   33       -1.875227   1.000000
   34       -1.812350   1.000000
   35       -1.713577   1.000000
   36       -1.562073   1.000000
   37       -1.217183   1.000000
   38       -1.191670   1.000000
   39       -1.067132   1.000000
   40       -0.950106   1.000000
   41       -0.889068   1.000000
   42       -0.859853   1.000000
   43       -0.851206   1.000000
   44       -0.844506   1.000000
   45       -0.723488   1.000000
   46       -0.681519   1.000000
   47       -0.657805   1.000000
   48       -0.500164   1.000000
   49       -0.362830   1.000000
   50       -0.005481   1.000000
   51        0.022150   1.000000
   52        0.044429   1.000000
   53        0.109282   1.000000
   54        0.289568   1.000000
   55        0.400615   1.000000
   56        0.423335   1.000000
   57        2.808035   0.000000
   58        2.978881   0.000000
   59        4.225985   0.000000
   60        4.242169   0.000000
   61        4.310096   0.000000
   62        4.477661   0.000000
   63        4.660542   0.000000
   64        4.844043   0.000000
   65        5.174758   0.000000
   66        5.405296   0.000000
   67        5.452416   0.000000
   68        5.593287   0.000000
   69        5.722952   0.000000
   70        5.869142   0.000000
   71        6.204130   0.000000
   72        6.284812   0.000000
   73        6.530574   0.000000
   74        6.608028   0.000000
   75        6.936918   0.000000
   76        7.093709   0.000000
   77        8.702195   0.000000
   78        9.842971   0.000000
   79       10.943960   0.000000
   80       13.420574   0.000000
   81       13.595522   0.000000
   82       15.384978   0.000000
   83       15.458041   0.000000
   84       16.107436   0.000000
   85       16.539855   0.000000
   86       16.663425   0.000000
   87       16.845551   0.000000
   88       17.022662   0.000000
   89       17.154228   0.000000
   90       17.789220   0.000000
   91       17.936872   0.000000
   92       18.114859   0.000000
   93       18.391320   0.000000
   94       19.143202   0.000000
   95       19.492914   0.000000
   96       19.605810   0.000000
   97       19.869146   0.000000
   98       19.913060   0.000000
   99       19.917078   0.000000
  100       20.024533   0.000000
  101       20.268259   0.000000
  102       20.444210   0.000000
  103       20.917754   0.000000
  104       21.410389   0.000000
  105       21.484761   0.000000
  106       21.806001   0.000000
  107       23.181429   0.000000
  108       23.356119   0.000000
  109       24.022855   0.000000
  110       24.170903   0.000000
  111       24.875820   0.000000
  112       25.048755   0.000000
  113       25.073203   0.000000
  114       25.247310   0.000000
  115       25.936163   0.000000
  116       26.036108   0.000000
  117       26.422321   0.000000
  118       26.665063   0.000000
  119       27.104942   0.000000
  120       27.161953   0.000000
  121       27.346795   0.000000
  122       27.457763   0.000000
  123       27.969082   0.000000
  124       28.190130   0.000000
  125       28.261508   0.000000
  126       28.414583   0.000000
  127       28.520154   0.000000
  128       28.979369   0.000000
 
  0.4143472E+00  0.4932147E+00 -0.1846900E-01  0.1851852E-01
    1      -62.999426   1.000000
    2      -62.997544   1.000000
    3      -62.996254   1.000000
    4      -62.994367   1.000000
    5      -36.991160   1.000000
    6      -36.988903   1.000000
    7      -36.988748   1.000000
    8      -36.985187   1.000000
    9      -36.945143   1.000000
   10      -36.932625   1.000000
   11      -36.911765   1.000000
   12      -36.908580   1.000000
   13      -36.845620   1.000000
   14      -36.844956   1.000000
   15      -36.823961   1.000000
   16      -36.816394   1.000000
   17      -15.735452   1.000000
   18      -15.600972   1.000000
   19      -15.430460   1.000000
   20      -15.288297   1.000000
   21      -15.160941   1.000000
   22      -15.159372   1.000000
   23      -14.741372   1.000000
   24      -14.705727   1.000000
   25      -14.679235   1.000000
   26      -14.642189   1.000000
   27       -3.875293   1.000000
   28       -3.744401   1.000000
   29       -3.422130   1.000000
   30       -3.261126   1.000000
   31       -3.210281   1.000000
   32       -3.029874   1.000000
   33       -3.017003   1.000000
   34       -2.745555   1.000000
   35       -2.724454   1.000000
   36       -2.632950   1.000000
   37       -2.469777   1.000000
   38       -2.238446   1.000000
   39       -2.237100   1.000000
   40       -2.055522   1.000000
   41       -1.885825   1.000000
   42       -1.882725   1.000000
   43       -1.736363   1.000000
   44       -1.493085   1.000000
   45       -1.425586   1.000000
   46       -0.919605   1.000000
   47       -0.258652   1.000000
   48       -0.162604   1.000000
   49       -0.155540   1.000000
   50        0.083565   1.000000
   51        0.858609   1.000000
   52        0.900579   1.000000
   53        0.925933   1.000000
   54        0.930570   1.000000
   55        1.114074   1.000000
   56        1.138763   1.000000
   57        3.267771   0.000000
   58        3.394869   0.000000
   59        4.107491   0.000000
   60        4.148666   0.000000
   61        4.639095   0.000000
   62        4.697450   0.000000
   63        4.714352   0.000000
   64        4.773516   0.000000
   65        5.030526   0.000000
   66        5.090654   0.000000
   67        5.101742   0.000000
   68        5.149160   0.000000
   69        5.929984   0.000000
   70        6.529816   0.000000
   71        7.005320   0.000000
   72        7.328636   0.000000
   73        7.567673   0.000000
   74        7.576615   0.000000
   75        7.635998   0.000000
   76        7.757878   0.000000
   77       11.741884   0.000000
   78       11.805503   0.000000
   79       13.647270   0.000000
   80       13.886040   0.000000
   81       14.437991   0.000000
   82       14.675891   0.000000
   83       14.881676   0.000000
   84       15.233049   0.000000
   85       15.779537   0.000000
   86       15.916735   0.000000
   87       15.991124   0.000000
   88       16.086758   0.000000
   89       16.333430   0.000000
   90       16.717015   0.000000
   91       16.762801   0.000000
   92       17.086897   0.000000
   93       17.224759   0.000000
   94       17.670468   0.000000
   95       18.139113   0.000000
   96       18.277985   0.000000
   97       19.552532   0.000000
   98       19.770009   0.000000
   99       19.862417   0.000000
  100       20.490848   0.000000
  101       21.099432   0.000000
  102       21.166402   0.000000
  103       21.775088   0.000000
  104       22.143244   0.000000
  105       22.709461   0.000000
  106       23.404309   0.000000
  107       23.659585   0.000000
  108       23.914629   0.000000
  109       24.331043   0.000000
  110       24.475009   0.000000
  111       24.943931   0.000000
  112       25.196900   0.000000
  113       25.444741   0.000000
  114       25.610206   0.000000
  115       26.257252   0.000000
  116       26.469556   0.000000
  117       27.132392   0.000000
  118       27.250176   0.000000
  119       27.275018   0.000000
  120       27.691461   0.000000
  121       27.837891   0.000000
  122       28.420409   0.000000
  123       28.831002   0.000000
  124       29.151332   0.000000
  125       29.331258   0.000000
  126       29.600307   0.000000
  127       29.711465   0.000000
  128       30.293166   0.000000
 
  0.4143472E+00  0.4932147E+00  0.0000000E+00  0.1851852E-01
    1      -62.999427   1.000000
    2      -62.997540   1.000000
    3      -62.996258   1.000000
    4      -62.994367   1.000000
    5      -36.991161   1.000000
    6      -36.988863   1.000000
    7      -36.988787   1.000000
    8      -36.985184   1.000000
    9      -36.945153   1.000000
   10      -36.932618   1.000000
   11      -36.911763   1.000000
   12      -36.908571   1.000000
   13      -36.845626   1.000000
   14      -36.844961   1.000000
   15      -36.823964   1.000000
   16      -36.816384   1.000000
   17      -15.735514   1.000000
   18      -15.600786   1.000000
   19      -15.430666   1.000000
   20      -15.288183   1.000000
   21      -15.160962   1.000000
   22      -15.159373   1.000000
   23      -14.741380   1.000000
   24      -14.705664   1.000000
   25      -14.679325   1.000000
   26      -14.642148   1.000000
   27       -3.875370   1.000000
   28       -3.744221   1.000000
   29       -3.422389   1.000000
   30       -3.261075   1.000000
   31       -3.210266   1.000000
   32       -3.029667   1.000000
   33       -3.016992   1.000000
   34       -2.743146   1.000000
   35       -2.726530   1.000000
   36       -2.632957   1.000000
   37       -2.470439   1.000000
   38       -2.238416   1.000000
   39       -2.237183   1.000000
   40       -2.054778   1.000000
   41       -1.885310   1.000000
   42       -1.883673   1.000000
   43       -1.736357   1.000000
   44       -1.493479   1.000000
   45       -1.425989   1.000000
   46       -0.919749   1.000000
   47       -0.249718   1.000000
   48       -0.165635   1.000000
   49       -0.159491   1.000000
   50        0.082261   1.000000
   51        0.859787   1.000000
   52        0.904096   1.000000
   53        0.922494   1.000000
   54        0.929501   1.000000
   55        1.114107   1.000000
   56        1.138792   1.000000
   57        3.267547   0.000000
   58        3.394815   0.000000
   59        4.107589   0.000000
   60        4.148781   0.000000
   61        4.639074   0.000000
   62        4.697604   0.000000
   63        4.714252   0.000000
   64        4.773342   0.000000
   65        5.030617   0.000000
   66        5.090576   0.000000
   67        5.102511   0.000000
   68        5.148787   0.000000
   69        5.929506   0.000000
   70        6.530742   0.000000
   71        7.004415   0.000000
   72        7.328569   0.000000
   73        7.568159   0.000000
   74        7.576871   0.000000
   75        7.635554   0.000000
   76        7.757902   0.000000
   77       11.741807   0.000000
   78       11.805539   0.000000
   79       13.647161   0.000000
   80       13.886391   0.000000
   81       14.437831   0.000000
   82       14.675032   0.000000
   83       14.882527   0.000000
   84       15.231981   0.000000
   85       15.780945   0.000000
   86       15.916883   0.000000
   87       15.991513   0.000000
   88       16.087021   0.000000
   89       16.333490   0.000000
   90       16.731020   0.000000
   91       16.747478   0.000000
   92       17.086132   0.000000
   93       17.224793   0.000000
   94       17.669884   0.000000
   95       18.150633   0.000000
   96       18.266674   0.000000
   97       19.566182   0.000000
   98       19.755906   0.000000
   99       19.862891   0.000000
  100       20.489038   0.000000
  101       21.101744   0.000000
  102       21.168881   0.000000
  103       21.772818   0.000000
  104       22.141084   0.000000
  105       22.711379   0.000000
  106       23.410871   0.000000
  107       23.654370   0.000000
  108       23.920685   0.000000
  109       24.330698   0.000000
  110       24.466849   0.000000
  111       24.945832   0.000000
  112       25.202156   0.000000
  113       25.444977   0.000000
  114       25.603665   0.000000
  115       26.261160   0.000000
  116       26.462833   0.000000
  117       27.132756   0.000000
  118       27.249681   0.000000
  119       27.275139   0.000000
  120       27.690825   0.000000
  121       27.837856   0.000000
  122       28.421900   0.000000
  123       28.831058   0.000000
  124       29.153546   0.000000
  125       29.333273   0.000000
  126       29.606289   0.000000
  127       29.710050   0.000000
  128       30.296382   0.000000
 
  0.4143472E+00  0.4932147E+00  0.1846900E-01  0.1851852E-01
    1      -62.999426   1.000000
    2      -62.997544   1.000000
    3      -62.996254   1.000000
    4      -62.994367   1.000000
    5      -36.991160   1.000000
    6      -36.988903   1.000000
    7      -36.988748   1.000000
    8      -36.985187   1.000000
    9      -36.945143   1.000000
   10      -36.932625   1.000000
   11      -36.911765   1.000000
   12      -36.908580   1.000000
   13      -36.845620   1.000000
   14      -36.844956   1.000000
   15      -36.823961   1.000000
   16      -36.816394   1.000000
   17      -15.735452   1.000000
   18      -15.600972   1.000000
   19      -15.430460   1.000000
   20      -15.288297   1.000000
   21      -15.160941   1.000000
   22      -15.159372   1.000000
   23      -14.741372   1.000000
   24      -14.705727   1.000000
   25      -14.679235   1.000000
   26      -14.642189   1.000000
   27       -3.875293   1.000000
   28       -3.744401   1.000000
   29       -3.422130   1.000000
   30       -3.261126   1.000000
   31       -3.210281   1.000000
   32       -3.029874   1.000000
   33       -3.017003   1.000000
   34       -2.745555   1.000000
   35       -2.724454   1.000000
   36       -2.632950   1.000000
   37       -2.469777   1.000000
   38       -2.238446   1.000000
   39       -2.237100   1.000000
   40       -2.055522   1.000000
   41       -1.885825   1.000000
   42       -1.882725   1.000000
   43       -1.736363   1.000000
   44       -1.493085   1.000000
   45       -1.425586   1.000000
   46       -0.919605   1.000000
   47       -0.258652   1.000000
   48       -0.162604   1.000000
   49       -0.155540   1.000000
   50        0.083565   1.000000
   51        0.858609   1.000000
   52        0.900579   1.000000
   53        0.925933   1.000000
   54        0.930570   1.000000
   55        1.114074   1.000000
   56        1.138763   1.000000
   57        3.267771   0.000000
   58        3.394869   0.000000
   59        4.107491   0.000000
   60        4.148666   0.000000
   61        4.639095   0.000000
   62        4.697450   0.000000
   63        4.714352   0.000000
   64        4.773516   0.000000
   65        5.030526   0.000000
   66        5.090654   0.000000
   67        5.101742   0.000000
   68        5.149160   0.000000
   69        5.929984   0.000000
   70        6.529816   0.000000
   71        7.005320   0.000000
   72        7.328636   0.000000
   73        7.567673   0.000000
   74        7.576615   0.000000
   75        7.635998   0.000000
   76        7.757878   0.000000
   77       11.741884   0.000000
   78       11.805503   0.000000
   79       13.647270   0.000000
   80       13.886040   0.000000
   81       14.437991   0.000000
   82       14.675891   0.000000
   83       14.881676   0.000000
   84       15.233049   0.000000
   85       15.779537   0.000000
   86       15.916735   0.000000
   87       15.991124   0.000000
   88       16.086758   0.000000
   89       16.333430   0.000000
   90       16.717015   0.000000
   91       16.762801   0.000000
   92       17.086897   0.000000
   93       17.224759   0.000000
   94       17.670468   0.000000
   95       18.139113   0.000000
   96       18.277985   0.000000
   97       19.552532   0.000000
   98       19.770009   0.000000
   99       19.862417   0.000000
  100       20.490848   0.000000
  101       21.099432   0.000000
  102       21.166402   0.000000
  103       21.775088   0.000000
  104       22.143244   0.000000
  105       22.709461   0.000000
  106       23.404309   0.000000
  107       23.659585   0.000000
  108       23.914629   0.000000
  109       24.331043   0.000000
  110       24.475009   0.000000
  111       24.943931   0.000000
  112       25.196900   0.000000
  113       25.444741   0.000000
  114       25.610206   0.000000
  115       26.257252   0.000000
  116       26.469556   0.000000
  117       27.132392   0.000000
  118       27.250176   0.000000
  119       27.275018   0.000000
  120       27.691461   0.000000
  121       27.837891   0.000000
  122       28.420409   0.000000
  123       28.831002   0.000000
  124       29.151332   0.000000
  125       29.331258   0.000000
  126       29.600307   0.000000
  127       29.711465   0.000000
  128       30.293163   0.000000
 
  0.4143472E+00  0.5000000E+00 -0.1846900E-01  0.1851852E-01
    1      -62.999426   1.000000
    2      -62.997543   1.000000
    3      -62.996254   1.000000
    4      -62.994367   1.000000
    5      -36.991162   1.000000
    6      -36.988903   1.000000
    7      -36.988752   1.000000
    8      -36.985189   1.000000
    9      -36.945142   1.000000
   10      -36.932625   1.000000
   11      -36.911764   1.000000
   12      -36.908580   1.000000
   13      -36.845619   1.000000
   14      -36.844956   1.000000
   15      -36.823961   1.000000
   16      -36.816393   1.000000
   17      -15.735402   1.000000
   18      -15.600943   1.000000
   19      -15.430429   1.000000
   20      -15.288277   1.000000
   21      -15.160931   1.000000
   22      -15.159353   1.000000
   23      -14.741340   1.000000
   24      -14.705666   1.000000
   25      -14.679201   1.000000
   26      -14.642091   1.000000
   27       -3.875286   1.000000
   28       -3.744377   1.000000
   29       -3.422193   1.000000
   30       -3.261237   1.000000
   31       -3.210390   1.000000
   32       -3.030186   1.000000
   33       -3.017027   1.000000
   34       -2.745789   1.000000
   35       -2.724810   1.000000
   36       -2.633243   1.000000
   37       -2.469959   1.000000
   38       -2.238796   1.000000
   39       -2.237337   1.000000
   40       -2.055864   1.000000
   41       -1.886181   1.000000
   42       -1.882764   1.000000
   43       -1.736470   1.000000
   44       -1.493260   1.000000
   45       -1.425789   1.000000
   46       -0.919656   1.000000
   47       -0.258570   1.000000
   48       -0.161893   1.000000
   49       -0.156113   1.000000
   50        0.083663   1.000000
   51        0.858955   1.000000
   52        0.900822   1.000000
   53        0.926249   1.000000
   54        0.930768   1.000000
   55        1.114397   1.000000
   56        1.139105   1.000000
   57        3.267826   0.000000
   58        3.394907   0.000000
   59        4.107564   0.000000
   60        4.148721   0.000000
   61        4.639248   0.000000
   62        4.697507   0.000000
   63        4.714368   0.000000
   64        4.773563   0.000000
   65        5.030501   0.000000
   66        5.090638   0.000000
   67        5.101636   0.000000
   68        5.149221   0.000000
   69        5.929973   0.000000
   70        6.529837   0.000000
   71        7.005301   0.000000
   72        7.329385   0.000000
   73        7.568328   0.000000
   74        7.576699   0.000000
   75        7.636847   0.000000
   76        7.758532   0.000000
   77       11.741982   0.000000
   78       11.805675   0.000000
   79       13.647645   0.000000
   80       13.885451   0.000000
   81       14.437467   0.000000
   82       14.684122   0.000000
   83       14.873433   0.000000
   84       15.235542   0.000000
   85       15.782659   0.000000
   86       15.914415   0.000000
   87       15.988327   0.000000
   88       16.086907   0.000000
   89       16.332294   0.000000
   90       16.716883   0.000000
   91       16.763632   0.000000
   92       17.084475   0.000000
   93       17.224981   0.000000
   94       17.670038   0.000000
   95       18.138767   0.000000
   96       18.277195   0.000000
   97       19.552717   0.000000
   98       19.774562   0.000000
   99       19.857605   0.000000
  100       20.491291   0.000000
  101       21.099777   0.000000
  102       21.165323   0.000000
  103       21.775524   0.000000
  104       22.142654   0.000000
  105       22.709979   0.000000
  106       23.404979   0.000000
  107       23.662681   0.000000
  108       23.917819   0.000000
  109       24.329304   0.000000
  110       24.474329   0.000000
  111       24.942223   0.000000
  112       25.196616   0.000000
  113       25.447638   0.000000
  114       25.611848   0.000000
  115       26.257578   0.000000
  116       26.469312   0.000000
  117       27.132939   0.000000
  118       27.247056   0.000000
  119       27.275278   0.000000
  120       27.690154   0.000000
  121       27.838133   0.000000
  122       28.419960   0.000000
  123       28.828968   0.000000
  124       29.151466   0.000000
  125       29.330287   0.000000
  126       29.600928   0.000000
  127       29.715335   0.000000
  128       30.292325   0.000000
 
  0.4143472E+00  0.5000000E+00  0.0000000E+00  0.1851852E-01
    1      -62.999427   1.000000
    2      -62.997540   1.000000
    3      -62.996258   1.000000
    4      -62.994367   1.000000
    5      -36.991161   1.000000
    6      -36.988869   1.000000
    7      -36.988790   1.000000
    8      -36.985193   1.000000
    9      -36.945153   1.000000
   10      -36.932618   1.000000
   11      -36.911763   1.000000
   12      -36.908571   1.000000
   13      -36.845626   1.000000
   14      -36.844961   1.000000
   15      -36.823963   1.000000
   16      -36.816384   1.000000
   17      -15.735482   1.000000
   18      -15.600753   1.000000
   19      -15.430635   1.000000
   20      -15.288186   1.000000
   21      -15.160924   1.000000
   22      -15.159360   1.000000
   23      -14.741354   1.000000
   24      -14.705604   1.000000
   25      -14.679263   1.000000
   26      -14.642070   1.000000
   27       -3.875362   1.000000
   28       -3.744200   1.000000
   29       -3.422451   1.000000
   30       -3.261186   1.000000
   31       -3.210376   1.000000
   32       -3.029987   1.000000
   33       -3.017006   1.000000
   34       -2.743367   1.000000
   35       -2.726899   1.000000
   36       -2.633250   1.000000
   37       -2.470622   1.000000
   38       -2.238790   1.000000
   39       -2.237397   1.000000
   40       -2.055122   1.000000
   41       -1.885690   1.000000
   42       -1.883686   1.000000
   43       -1.736465   1.000000
   44       -1.493654   1.000000
   45       -1.426191   1.000000
   46       -0.919801   1.000000
   47       -0.249637   1.000000
   48       -0.164726   1.000000
   49       -0.160262   1.000000
   50        0.082360   1.000000
   51        0.860135   1.000000
   52        0.904333   1.000000
   53        0.922801   1.000000
   54        0.929711   1.000000
   55        1.114429   1.000000
   56        1.139134   1.000000
   57        3.267601   0.000000
   58        3.394854   0.000000
   59        4.107662   0.000000
   60        4.148836   0.000000
   61        4.639228   0.000000
   62        4.697660   0.000000
   63        4.714268   0.000000
   64        4.773389   0.000000
   65        5.030592   0.000000
   66        5.090559   0.000000
   67        5.102404   0.000000
   68        5.148852   0.000000
   69        5.929494   0.000000
   70        6.530762   0.000000
   71        7.004394   0.000000
   72        7.329317   0.000000
   73        7.568812   0.000000
   74        7.576973   0.000000
   75        7.636395   0.000000
   76        7.758557   0.000000
   77       11.741908   0.000000
   78       11.805705   0.000000
   79       13.647530   0.000000
   80       13.885801   0.000000
   81       14.437297   0.000000
   82       14.683214   0.000000
   83       14.874325   0.000000
   84       15.234491   0.000000
   85       15.784073   0.000000
   86       15.914572   0.000000
   87       15.988661   0.000000
   88       16.087165   0.000000
   89       16.332358   0.000000
   90       16.730465   0.000000
   91       16.748724   0.000000
   92       17.083704   0.000000
   93       17.225028   0.000000
   94       17.669465   0.000000
   95       18.150355   0.000000
   96       18.265820   0.000000
   97       19.566336   0.000000
   98       19.760017   0.000000
   99       19.858571   0.000000
  100       20.489479   0.000000
  101       21.102093   0.000000
  102       21.167803   0.000000
  103       21.773239   0.000000
  104       22.140499   0.000000
  105       22.711889   0.000000
  106       23.411500   0.000000
  107       23.657544   0.000000
  108       23.923958   0.000000
  109       24.328774   0.000000
  110       24.466202   0.000000
  111       24.944131   0.000000
  112       25.201821   0.000000
  113       25.447865   0.000000
  114       25.605349   0.000000
  115       26.261519   0.000000
  116       26.462545   0.000000
  117       27.133315   0.000000
  118       27.246481   0.000000
  119       27.275461   0.000000
  120       27.689505   0.000000
  121       27.838128   0.000000
  122       28.421450   0.000000
  123       28.829015   0.000000
  124       29.153641   0.000000
  125       29.332265   0.000000
  126       29.606961   0.000000
  127       29.713907   0.000000
  128       30.295433   0.000000
 
  0.4143472E+00  0.5000000E+00  0.1846900E-01  0.1851852E-01
    1      -62.999426   1.000000
    2      -62.997543   1.000000
    3      -62.996254   1.000000
    4      -62.994367   1.000000
    5      -36.991162   1.000000
    6      -36.988903   1.000000
    7      -36.988752   1.000000
    8      -36.985189   1.000000
    9      -36.945142   1.000000
   10      -36.932625   1.000000
   11      -36.911764   1.000000
   12      -36.908580   1.000000
   13      -36.845619   1.000000
   14      -36.844956   1.000000
   15      -36.823961   1.000000
   16      -36.816393   1.000000
   17      -15.735402   1.000000
   18      -15.600943   1.000000
   19      -15.430429   1.000000
   20      -15.288277   1.000000
   21      -15.160931   1.000000
   22      -15.159353   1.000000
   23      -14.741340   1.000000
   24      -14.705666   1.000000
   25      -14.679201   1.000000
   26      -14.642091   1.000000
   27       -3.875286   1.000000
   28       -3.744377   1.000000
   29       -3.422193   1.000000
   30       -3.261237   1.000000
   31       -3.210390   1.000000
   32       -3.030186   1.000000
   33       -3.017027   1.000000
   34       -2.745789   1.000000
   35       -2.724810   1.000000
   36       -2.633243   1.000000
   37       -2.469959   1.000000
   38       -2.238796   1.000000
   39       -2.237337   1.000000
   40       -2.055864   1.000000
   41       -1.886181   1.000000
   42       -1.882764   1.000000
   43       -1.736470   1.000000
   44       -1.493260   1.000000
   45       -1.425789   1.000000
   46       -0.919656   1.000000
   47       -0.258570   1.000000
   48       -0.161893   1.000000
   49       -0.156113   1.000000
   50        0.083663   1.000000
   51        0.858955   1.000000
   52        0.900822   1.000000
   53        0.926249   1.000000
   54        0.930768   1.000000
   55        1.114397   1.000000
   56        1.139105   1.000000
   57        3.267826   0.000000
   58        3.394907   0.000000
   59        4.107564   0.000000
   60        4.148721   0.000000
   61        4.639248   0.000000
   62        4.697507   0.000000
   63        4.714368   0.000000
   64        4.773563   0.000000
   65        5.030501   0.000000
   66        5.090638   0.000000
   67        5.101636   0.000000
   68        5.149221   0.000000
   69        5.929973   0.000000
   70        6.529837   0.000000
   71        7.005301   0.000000
   72        7.329385   0.000000
   73        7.568328   0.000000
   74        7.576699   0.000000
   75        7.636847   0.000000
   76        7.758532   0.000000
   77       11.741982   0.000000
   78       11.805675   0.000000
   79       13.647645   0.000000
   80       13.885451   0.000000
   81       14.437467   0.000000
   82       14.684122   0.000000
   83       14.873433   0.000000
   84       15.235542   0.000000
   85       15.782659   0.000000
   86       15.914415   0.000000
   87       15.988327   0.000000
   88       16.086907   0.000000
   89       16.332294   0.000000
   90       16.716883   0.000000
   91       16.763632   0.000000
   92       17.084475   0.000000
   93       17.224981   0.000000
   94       17.670038   0.000000
   95       18.138767   0.000000
   96       18.277195   0.000000
   97       19.552717   0.000000
   98       19.774562   0.000000
   99       19.857605   0.000000
  100       20.491291   0.000000
  101       21.099777   0.000000
  102       21.165323   0.000000
  103       21.775524   0.000000
  104       22.142654   0.000000
  105       22.709979   0.000000
  106       23.404979   0.000000
  107       23.662681   0.000000
  108       23.917819   0.000000
  109       24.329304   0.000000
  110       24.474329   0.000000
  111       24.942223   0.000000
  112       25.196616   0.000000
  113       25.447638   0.000000
  114       25.611848   0.000000
  115       26.257578   0.000000
  116       26.469312   0.000000
  117       27.132939   0.000000
  118       27.247056   0.000000
  119       27.275278   0.000000
  120       27.690154   0.000000
  121       27.838133   0.000000
  122       28.419960   0.000000
  123       28.828968   0.000000
  124       29.151466   0.000000
  125       29.330287   0.000000
  126       29.600928   0.000000
  127       29.715335   0.000000
  128       30.292325   0.000000
 
  0.4143472E+00  0.5067853E+00 -0.1846900E-01  0.1851852E-01
    1      -62.999426   1.000000
    2      -62.997544   1.000000
    3      -62.996254   1.000000
    4      -62.994367   1.000000
    5      -36.991160   1.000000
    6      -36.988903   1.000000
    7      -36.988748   1.000000
    8      -36.985187   1.000000
    9      -36.945143   1.000000
   10      -36.932625   1.000000
   11      -36.911765   1.000000
   12      -36.908580   1.000000
   13      -36.845620   1.000000
   14      -36.844956   1.000000
   15      -36.823961   1.000000
   16      -36.816394   1.000000
   17      -15.735452   1.000000
   18      -15.600972   1.000000
   19      -15.430460   1.000000
   20      -15.288297   1.000000
   21      -15.160941   1.000000
   22      -15.159372   1.000000
   23      -14.741372   1.000000
   24      -14.705727   1.000000
   25      -14.679235   1.000000
   26      -14.642189   1.000000
   27       -3.875293   1.000000
   28       -3.744401   1.000000
   29       -3.422130   1.000000
   30       -3.261126   1.000000
   31       -3.210281   1.000000
   32       -3.029874   1.000000
   33       -3.017003   1.000000
   34       -2.745555   1.000000
   35       -2.724454   1.000000
   36       -2.632950   1.000000
   37       -2.469777   1.000000
   38       -2.238446   1.000000
   39       -2.237100   1.000000
   40       -2.055522   1.000000
   41       -1.885825   1.000000
   42       -1.882725   1.000000
   43       -1.736363   1.000000
   44       -1.493085   1.000000
   45       -1.425586   1.000000
   46       -0.919605   1.000000
   47       -0.258652   1.000000
   48       -0.162604   1.000000
   49       -0.155540   1.000000
   50        0.083565   1.000000
   51        0.858609   1.000000
   52        0.900579   1.000000
   53        0.925933   1.000000
   54        0.930570   1.000000
   55        1.114074   1.000000
   56        1.138763   1.000000
   57        3.267771   0.000000
   58        3.394869   0.000000
   59        4.107491   0.000000
   60        4.148666   0.000000
   61        4.639095   0.000000
   62        4.697450   0.000000
   63        4.714352   0.000000
   64        4.773516   0.000000
   65        5.030526   0.000000
   66        5.090654   0.000000
   67        5.101742   0.000000
   68        5.149160   0.000000
   69        5.929984   0.000000
   70        6.529816   0.000000
   71        7.005320   0.000000
   72        7.328636   0.000000
   73        7.567673   0.000000
   74        7.576615   0.000000
   75        7.635998   0.000000
   76        7.757878   0.000000
   77       11.741884   0.000000
   78       11.805503   0.000000
   79       13.647270   0.000000
   80       13.886040   0.000000
   81       14.437991   0.000000
   82       14.675891   0.000000
   83       14.881676   0.000000
   84       15.233049   0.000000
   85       15.779537   0.000000
   86       15.916735   0.000000
   87       15.991124   0.000000
   88       16.086758   0.000000
   89       16.333430   0.000000
   90       16.717015   0.000000
   91       16.762801   0.000000
   92       17.086897   0.000000
   93       17.224759   0.000000
   94       17.670468   0.000000
   95       18.139113   0.000000
   96       18.277985   0.000000
   97       19.552532   0.000000
   98       19.770009   0.000000
   99       19.862417   0.000000
  100       20.490848   0.000000
  101       21.099432   0.000000
  102       21.166402   0.000000
  103       21.775088   0.000000
  104       22.143244   0.000000
  105       22.709461   0.000000
  106       23.404309   0.000000
  107       23.659585   0.000000
  108       23.914629   0.000000
  109       24.331043   0.000000
  110       24.475009   0.000000
  111       24.943931   0.000000
  112       25.196900   0.000000
  113       25.444741   0.000000
  114       25.610206   0.000000
  115       26.257252   0.000000
  116       26.469556   0.000000
  117       27.132392   0.000000
  118       27.250176   0.000000
  119       27.275018   0.000000
  120       27.691461   0.000000
  121       27.837891   0.000000
  122       28.420409   0.000000
  123       28.831002   0.000000
  124       29.151332   0.000000
  125       29.331258   0.000000
  126       29.600307   0.000000
  127       29.711465   0.000000
  128       30.293160   0.000000
 
  0.4143472E+00  0.5067853E+00  0.0000000E+00  0.1851852E-01
    1      -62.999427   1.000000
    2      -62.997540   1.000000
    3      -62.996258   1.000000
    4      -62.994367   1.000000
    5      -36.991161   1.000000
    6      -36.988863   1.000000
    7      -36.988787   1.000000
    8      -36.985184   1.000000
    9      -36.945153   1.000000
   10      -36.932618   1.000000
   11      -36.911763   1.000000
   12      -36.908571   1.000000
   13      -36.845626   1.000000
   14      -36.844961   1.000000
   15      -36.823964   1.000000
   16      -36.816384   1.000000
   17      -15.735514   1.000000
   18      -15.600786   1.000000
   19      -15.430666   1.000000
   20      -15.288183   1.000000
   21      -15.160962   1.000000
   22      -15.159373   1.000000
   23      -14.741380   1.000000
   24      -14.705664   1.000000
   25      -14.679325   1.000000
   26      -14.642148   1.000000
   27       -3.875370   1.000000
   28       -3.744221   1.000000
   29       -3.422389   1.000000
   30       -3.261075   1.000000
   31       -3.210266   1.000000
   32       -3.029667   1.000000
   33       -3.016992   1.000000
   34       -2.743146   1.000000
   35       -2.726530   1.000000
   36       -2.632957   1.000000
   37       -2.470439   1.000000
   38       -2.238416   1.000000
   39       -2.237183   1.000000
   40       -2.054778   1.000000
   41       -1.885310   1.000000
   42       -1.883673   1.000000
   43       -1.736357   1.000000
   44       -1.493479   1.000000
   45       -1.425989   1.000000
   46       -0.919749   1.000000
   47       -0.249718   1.000000
   48       -0.165635   1.000000
   49       -0.159491   1.000000
   50        0.082261   1.000000
   51        0.859787   1.000000
   52        0.904096   1.000000
   53        0.922494   1.000000
   54        0.929501   1.000000
   55        1.114107   1.000000
   56        1.138792   1.000000
   57        3.267547   0.000000
   58        3.394815   0.000000
   59        4.107589   0.000000
   60        4.148781   0.000000
   61        4.639074   0.000000
   62        4.697604   0.000000
   63        4.714252   0.000000
   64        4.773342   0.000000
   65        5.030617   0.000000
   66        5.090576   0.000000
   67        5.102511   0.000000
   68        5.148787   0.000000
   69        5.929506   0.000000
   70        6.530742   0.000000
   71        7.004415   0.000000
   72        7.328569   0.000000
   73        7.568159   0.000000
   74        7.576871   0.000000
   75        7.635554   0.000000
   76        7.757902   0.000000
   77       11.741807   0.000000
   78       11.805539   0.000000
   79       13.647161   0.000000
   80       13.886391   0.000000
   81       14.437831   0.000000
   82       14.675032   0.000000
   83       14.882527   0.000000
   84       15.231981   0.000000
   85       15.780945   0.000000
   86       15.916883   0.000000
   87       15.991513   0.000000
   88       16.087021   0.000000
   89       16.333490   0.000000
   90       16.731020   0.000000
   91       16.747478   0.000000
   92       17.086132   0.000000
   93       17.224793   0.000000
   94       17.669884   0.000000
   95       18.150633   0.000000
   96       18.266674   0.000000
   97       19.566182   0.000000
   98       19.755906   0.000000
   99       19.862891   0.000000
  100       20.489038   0.000000
  101       21.101744   0.000000
  102       21.168881   0.000000
  103       21.772818   0.000000
  104       22.141084   0.000000
  105       22.711379   0.000000
  106       23.410871   0.000000
  107       23.654370   0.000000
  108       23.920685   0.000000
  109       24.330698   0.000000
  110       24.466849   0.000000
  111       24.945832   0.000000
  112       25.202156   0.000000
  113       25.444977   0.000000
  114       25.603665   0.000000
  115       26.261160   0.000000
  116       26.462833   0.000000
  117       27.132756   0.000000
  118       27.249681   0.000000
  119       27.275139   0.000000
  120       27.690825   0.000000
  121       27.837856   0.000000
  122       28.421900   0.000000
  123       28.831058   0.000000
  124       29.153546   0.000000
  125       29.333273   0.000000
  126       29.606289   0.000000
  127       29.710050   0.000000
  128       30.296378   0.000000
 
  0.4143472E+00  0.5067853E+00  0.1846900E-01  0.1851852E-01
    1      -62.999426   1.000000
    2      -62.997544   1.000000
    3      -62.996254   1.000000
    4      -62.994367   1.000000
    5      -36.991160   1.000000
    6      -36.988903   1.000000
    7      -36.988748   1.000000
    8      -36.985187   1.000000
    9      -36.945143   1.000000
   10      -36.932625   1.000000
   11      -36.911765   1.000000
   12      -36.908580   1.000000
   13      -36.845620   1.000000
   14      -36.844956   1.000000
   15      -36.823961   1.000000
   16      -36.816394   1.000000
   17      -15.735452   1.000000
   18      -15.600972   1.000000
   19      -15.430460   1.000000
   20      -15.288297   1.000000
   21      -15.160941   1.000000
   22      -15.159372   1.000000
   23      -14.741372   1.000000
   24      -14.705727   1.000000
   25      -14.679235   1.000000
   26      -14.642189   1.000000
   27       -3.875293   1.000000
   28       -3.744401   1.000000
   29       -3.422130   1.000000
   30       -3.261126   1.000000
   31       -3.210281   1.000000
   32       -3.029874   1.000000
   33       -3.017003   1.000000
   34       -2.745555   1.000000
   35       -2.724454   1.000000
   36       -2.632950   1.000000
   37       -2.469777   1.000000
   38       -2.238446   1.000000
   39       -2.237100   1.000000
   40       -2.055522   1.000000
   41       -1.885825   1.000000
   42       -1.882725   1.000000
   43       -1.736363   1.000000
   44       -1.493085   1.000000
   45       -1.425586   1.000000
   46       -0.919605   1.000000
   47       -0.258652   1.000000
   48       -0.162604   1.000000
   49       -0.155540   1.000000
   50        0.083565   1.000000
   51        0.858609   1.000000
   52        0.900579   1.000000
   53        0.925933   1.000000
   54        0.930570   1.000000
   55        1.114074   1.000000
   56        1.138763   1.000000
   57        3.267771   0.000000
   58        3.394869   0.000000
   59        4.107491   0.000000
   60        4.148666   0.000000
   61        4.639095   0.000000
   62        4.697450   0.000000
   63        4.714352   0.000000
   64        4.773516   0.000000
   65        5.030526   0.000000
   66        5.090654   0.000000
   67        5.101742   0.000000
   68        5.149160   0.000000
   69        5.929984   0.000000
   70        6.529816   0.000000
   71        7.005320   0.000000
   72        7.328636   0.000000
   73        7.567673   0.000000
   74        7.576615   0.000000
   75        7.635998   0.000000
   76        7.757878   0.000000
   77       11.741884   0.000000
   78       11.805503   0.000000
   79       13.647270   0.000000
   80       13.886040   0.000000
   81       14.437991   0.000000
   82       14.675891   0.000000
   83       14.881676   0.000000
   84       15.233049   0.000000
   85       15.779537   0.000000
   86       15.916735   0.000000
   87       15.991124   0.000000
   88       16.086758   0.000000
   89       16.333430   0.000000
   90       16.717015   0.000000
   91       16.762801   0.000000
   92       17.086897   0.000000
   93       17.224759   0.000000
   94       17.670468   0.000000
   95       18.139113   0.000000
   96       18.277985   0.000000
   97       19.552532   0.000000
   98       19.770009   0.000000
   99       19.862417   0.000000
  100       20.490848   0.000000
  101       21.099432   0.000000
  102       21.166402   0.000000
  103       21.775088   0.000000
  104       22.143244   0.000000
  105       22.709461   0.000000
  106       23.404309   0.000000
  107       23.659585   0.000000
  108       23.914629   0.000000
  109       24.331043   0.000000
  110       24.475009   0.000000
  111       24.943931   0.000000
  112       25.196900   0.000000
  113       25.444741   0.000000
  114       25.610206   0.000000
  115       26.257252   0.000000
  116       26.469556   0.000000
  117       27.132392   0.000000
  118       27.250176   0.000000
  119       27.275018   0.000000
  120       27.691461   0.000000
  121       27.837891   0.000000
  122       28.420409   0.000000
  123       28.831002   0.000000
  124       29.151332   0.000000
  125       29.331258   0.000000
  126       29.600307   0.000000
  127       29.711465   0.000000
  128       30.293162   0.000000
 
  0.4200000E+00  0.4932147E+00 -0.1846900E-01  0.1851852E-01
    1      -62.999304   1.000000
    2      -62.997423   1.000000
    3      -62.996335   1.000000
    4      -62.994452   1.000000
    5      -36.991025   1.000000
    6      -36.988822   1.000000
    7      -36.988680   1.000000
    8      -36.985260   1.000000
    9      -36.945026   1.000000
   10      -36.933418   1.000000
   11      -36.912047   1.000000
   12      -36.909161   1.000000
   13      -36.845780   1.000000
   14      -36.845238   1.000000
   15      -36.823849   1.000000
   16      -36.816702   1.000000
   17      -15.721929   1.000000
   18      -15.586887   1.000000
   19      -15.436605   1.000000
   20      -15.294044   1.000000
   21      -15.159686   1.000000
   22      -15.158628   1.000000
   23      -14.738903   1.000000
   24      -14.703219   1.000000
   25      -14.680726   1.000000
   26      -14.643785   1.000000
   27       -3.864083   1.000000
   28       -3.728798   1.000000
   29       -3.438215   1.000000
   30       -3.269718   1.000000
   31       -3.206002   1.000000
   32       -3.028013   1.000000
   33       -3.016609   1.000000
   34       -2.740210   1.000000
   35       -2.721699   1.000000
   36       -2.635943   1.000000
   37       -2.465398   1.000000
   38       -2.265385   1.000000
   39       -2.262287   1.000000
   40       -2.057288   1.000000
   41       -1.899077   1.000000
   42       -1.894190   1.000000
   43       -1.711822   1.000000
   44       -1.494589   1.000000
   45       -1.433665   1.000000
   46       -0.943141   1.000000
   47       -0.248917   1.000000
   48       -0.165528   1.000000
   49       -0.159529   1.000000
   50        0.075443   1.000000
   51        0.864379   1.000000
   52        0.901536   1.000000
   53        0.927684   1.000000
   54        0.930227   1.000000
   55        1.117146   1.000000
   56        1.140543   1.000000
   57        3.272455   0.000000
   58        3.392824   0.000000
   59        4.107172   0.000000
   60        4.147310   0.000000
   61        4.645498   0.000000
   62        4.698139   0.000000
   63        4.714392   0.000000
   64        4.772820   0.000000
   65        5.037134   0.000000
   66        5.095948   0.000000
   67        5.106030   0.000000
   68        5.148190   0.000000
   69        5.946889   0.000000
   70        6.511371   0.000000
   71        7.019512   0.000000
   72        7.328213   0.000000
   73        7.566361   0.000000
   74        7.572049   0.000000
   75        7.626511   0.000000
   76        7.750467   0.000000
   77       11.746927   0.000000
   78       11.808600   0.000000
   79       13.679362   0.000000
   80       13.906875   0.000000
   81       14.452408   0.000000
   82       14.701723   0.000000
   83       14.907929   0.000000
   84       15.198095   0.000000
   85       15.750548   0.000000
   86       15.887124   0.000000
   87       15.959754   0.000000
   88       16.049521   0.000000
   89       16.358257   0.000000
   90       16.720647   0.000000
   91       16.795860   0.000000
   92       17.085262   0.000000
   93       17.218838   0.000000
   94       17.679374   0.000000
   95       18.111966   0.000000
   96       18.229615   0.000000
   97       19.577790   0.000000
   98       19.795209   0.000000
   99       19.882925   0.000000
  100       20.454924   0.000000
  101       21.089406   0.000000
  102       21.148171   0.000000
  103       21.778531   0.000000
  104       22.120927   0.000000
  105       22.730597   0.000000
  106       23.387220   0.000000
  107       23.701337   0.000000
  108       23.961298   0.000000
  109       24.348378   0.000000
  110       24.514023   0.000000
  111       24.942188   0.000000
  112       25.182752   0.000000
  113       25.439968   0.000000
  114       25.589933   0.000000
  115       26.325631   0.000000
  116       26.468791   0.000000
  117       27.150451   0.000000
  118       27.244789   0.000000
  119       27.315216   0.000000
  120       27.641219   0.000000
  121       27.821344   0.000000
  122       28.438217   0.000000
  123       28.830836   0.000000
  124       29.159942   0.000000
  125       29.315495   0.000000
  126       29.568043   0.000000
  127       29.697994   0.000000
  128       30.362690   0.000000
 
  0.4200000E+00  0.4932147E+00  0.0000000E+00  0.1851852E-01
    1      -62.999305   1.000000
    2      -62.997418   1.000000
    3      -62.996340   1.000000
    4      -62.994451   1.000000
    5      -36.991025   1.000000
    6      -36.988782   1.000000
    7      -36.988720   1.000000
    8      -36.985254   1.000000
    9      -36.945037   1.000000
   10      -36.933410   1.000000
   11      -36.912044   1.000000
   12      -36.909155   1.000000
   13      -36.845787   1.000000
   14      -36.845242   1.000000
   15      -36.823851   1.000000
   16      -36.816693   1.000000
   17      -15.721999   1.000000
   18      -15.586673   1.000000
   19      -15.436833   1.000000
   20      -15.293947   1.000000
   21      -15.159681   1.000000
   22      -15.158634   1.000000
   23      -14.738920   1.000000
   24      -14.703138   1.000000
   25      -14.680807   1.000000
   26      -14.643760   1.000000
   27       -3.864161   1.000000
   28       -3.728611   1.000000
   29       -3.438480   1.000000
   30       -3.269667   1.000000
   31       -3.205984   1.000000
   32       -3.027173   1.000000
   33       -3.017236   1.000000
   34       -2.737669   1.000000
   35       -2.723911   1.000000
   36       -2.635957   1.000000
   37       -2.466029   1.000000
   38       -2.265356   1.000000
   39       -2.262389   1.000000
   40       -2.056464   1.000000
   41       -1.900193   1.000000
   42       -1.893741   1.000000
   43       -1.711624   1.000000
   44       -1.494945   1.000000
   45       -1.434134   1.000000
   46       -0.943282   1.000000
   47       -0.238472   1.000000
   48       -0.170827   1.000000
   49       -0.162659   1.000000
   50        0.074052   1.000000
   51        0.865675   1.000000
   52        0.904951   1.000000
   53        0.924361   1.000000
   54        0.929030   1.000000
   55        1.117179   1.000000
   56        1.140573   1.000000
   57        3.272232   0.000000
   58        3.392763   0.000000
   59        4.107274   0.000000
   60        4.147428   0.000000
   61        4.645488   0.000000
   62        4.698293   0.000000
   63        4.714287   0.000000
   64        4.772646   0.000000
   65        5.037243   0.000000
   66        5.095856   0.000000
   67        5.106884   0.000000
   68        5.147712   0.000000
   69        5.946438   0.000000
   70        6.512190   0.000000
   71        7.018709   0.000000
   72        7.328157   0.000000
   73        7.566608   0.000000
   74        7.572613   0.000000
   75        7.625982   0.000000
   76        7.750499   0.000000
   77       11.746852   0.000000
   78       11.808632   0.000000
   79       13.679241   0.000000
   80       13.907197   0.000000
   81       14.452251   0.000000
   82       14.700911   0.000000
   83       14.908960   0.000000
   84       15.196853   0.000000
   85       15.751800   0.000000
   86       15.887276   0.000000
   87       15.960096   0.000000
   88       16.049723   0.000000
   89       16.358354   0.000000
   90       16.727587   0.000000
   91       16.787768   0.000000
   92       17.084439   0.000000
   93       17.218978   0.000000
   94       17.678737   0.000000
   95       18.125990   0.000000
   96       18.215759   0.000000
   97       19.591481   0.000000
   98       19.781125   0.000000
   99       19.883717   0.000000
  100       20.452745   0.000000
  101       21.091711   0.000000
  102       21.150621   0.000000
  103       21.776194   0.000000
  104       22.118748   0.000000
  105       22.732498   0.000000
  106       23.392473   0.000000
  107       23.697282   0.000000
  108       23.968098   0.000000
  109       24.348151   0.000000
  110       24.505325   0.000000
  111       24.944588   0.000000
  112       25.187773   0.000000
  113       25.440192   0.000000
  114       25.582833   0.000000
  115       26.331749   0.000000
  116       26.460014   0.000000
  117       27.150837   0.000000
  118       27.244262   0.000000
  119       27.315504   0.000000
  120       27.640479   0.000000
  121       27.821244   0.000000
  122       28.439636   0.000000
  123       28.830882   0.000000
  124       29.162270   0.000000
  125       29.317168   0.000000
  126       29.573746   0.000000
  127       29.697058   0.000000
  128       30.367207   0.000000
 
  0.4200000E+00  0.4932147E+00  0.1846900E-01  0.1851852E-01
    1      -62.999304   1.000000
    2      -62.997423   1.000000
    3      -62.996335   1.000000
    4      -62.994452   1.000000
    5      -36.991025   1.000000
    6      -36.988822   1.000000
    7      -36.988680   1.000000
    8      -36.985260   1.000000
    9      -36.945026   1.000000
   10      -36.933418   1.000000
   11      -36.912047   1.000000
   12      -36.909161   1.000000
   13      -36.845780   1.000000
   14      -36.845238   1.000000
   15      -36.823849   1.000000
   16      -36.816702   1.000000
   17      -15.721929   1.000000
   18      -15.586887   1.000000
   19      -15.436605   1.000000
   20      -15.294044   1.000000
   21      -15.159686   1.000000
   22      -15.158628   1.000000
   23      -14.738903   1.000000
   24      -14.703219   1.000000
   25      -14.680726   1.000000
   26      -14.643785   1.000000
   27       -3.864083   1.000000
   28       -3.728798   1.000000
   29       -3.438215   1.000000
   30       -3.269718   1.000000
   31       -3.206002   1.000000
   32       -3.028013   1.000000
   33       -3.016609   1.000000
   34       -2.740210   1.000000
   35       -2.721699   1.000000
   36       -2.635943   1.000000
   37       -2.465398   1.000000
   38       -2.265385   1.000000
   39       -2.262287   1.000000
   40       -2.057288   1.000000
   41       -1.899077   1.000000
   42       -1.894190   1.000000
   43       -1.711822   1.000000
   44       -1.494589   1.000000
   45       -1.433665   1.000000
   46       -0.943141   1.000000
   47       -0.248917   1.000000
   48       -0.165528   1.000000
   49       -0.159529   1.000000
   50        0.075443   1.000000
   51        0.864379   1.000000
   52        0.901536   1.000000
   53        0.927684   1.000000
   54        0.930227   1.000000
   55        1.117146   1.000000
   56        1.140543   1.000000
   57        3.272455   0.000000
   58        3.392824   0.000000
   59        4.107172   0.000000
   60        4.147310   0.000000
   61        4.645498   0.000000
   62        4.698139   0.000000
   63        4.714392   0.000000
   64        4.772820   0.000000
   65        5.037134   0.000000
   66        5.095948   0.000000
   67        5.106030   0.000000
   68        5.148190   0.000000
   69        5.946889   0.000000
   70        6.511371   0.000000
   71        7.019512   0.000000
   72        7.328213   0.000000
   73        7.566361   0.000000
   74        7.572049   0.000000
   75        7.626511   0.000000
   76        7.750467   0.000000
   77       11.746927   0.000000
   78       11.808600   0.000000
   79       13.679362   0.000000
   80       13.906875   0.000000
   81       14.452408   0.000000
   82       14.701723   0.000000
   83       14.907929   0.000000
   84       15.198095   0.000000
   85       15.750548   0.000000
   86       15.887124   0.000000
   87       15.959754   0.000000
   88       16.049521   0.000000
   89       16.358257   0.000000
   90       16.720647   0.000000
   91       16.795860   0.000000
   92       17.085262   0.000000
   93       17.218838   0.000000
   94       17.679374   0.000000
   95       18.111966   0.000000
   96       18.229615   0.000000
   97       19.577790   0.000000
   98       19.795209   0.000000
   99       19.882925   0.000000
  100       20.454924   0.000000
  101       21.089406   0.000000
  102       21.148171   0.000000
  103       21.778531   0.000000
  104       22.120927   0.000000
  105       22.730597   0.000000
  106       23.387220   0.000000
  107       23.701337   0.000000
  108       23.961298   0.000000
  109       24.348378   0.000000
  110       24.514023   0.000000
  111       24.942188   0.000000
  112       25.182752   0.000000
  113       25.439968   0.000000
  114       25.589933   0.000000
  115       26.325631   0.000000
  116       26.468791   0.000000
  117       27.150451   0.000000
  118       27.244789   0.000000
  119       27.315216   0.000000
  120       27.641219   0.000000
  121       27.821344   0.000000
  122       28.438217   0.000000
  123       28.830836   0.000000
  124       29.159942   0.000000
  125       29.315495   0.000000
  126       29.568043   0.000000
  127       29.697994   0.000000
  128       30.362673   0.000000
 
  0.4200000E+00  0.5000000E+00 -0.1846900E-01  0.1851852E-01
    1      -62.999304   1.000000
    2      -62.997423   1.000000
    3      -62.996335   1.000000
    4      -62.994452   1.000000
    5      -36.991024   1.000000
    6      -36.988825   1.000000
    7      -36.988682   1.000000
    8      -36.985263   1.000000
    9      -36.945026   1.000000
   10      -36.933417   1.000000
   11      -36.912047   1.000000
   12      -36.909160   1.000000
   13      -36.845779   1.000000
   14      -36.845238   1.000000
   15      -36.823848   1.000000
   16      -36.816702   1.000000
   17      -15.721889   1.000000
   18      -15.586857   1.000000
   19      -15.436586   1.000000
   20      -15.294027   1.000000
   21      -15.159657   1.000000
   22      -15.158607   1.000000
   23      -14.738866   1.000000
   24      -14.703157   1.000000
   25      -14.680682   1.000000
   26      -14.643698   1.000000
   27       -3.864076   1.000000
   28       -3.728775   1.000000
   29       -3.438275   1.000000
   30       -3.269826   1.000000
   31       -3.206107   1.000000
   32       -3.028039   1.000000
   33       -3.016908   1.000000
   34       -2.740454   1.000000
   35       -2.722059   1.000000
   36       -2.636231   1.000000
   37       -2.465585   1.000000
   38       -2.265723   1.000000
   39       -2.262511   1.000000
   40       -2.057662   1.000000
   41       -1.899082   1.000000
   42       -1.894591   1.000000
   43       -1.711920   1.000000
   44       -1.494765   1.000000
   45       -1.433870   1.000000
   46       -0.943194   1.000000
   47       -0.248834   1.000000
   48       -0.164809   1.000000
   49       -0.160111   1.000000
   50        0.075542   1.000000
   51        0.864726   1.000000
   52        0.901777   1.000000
   53        0.928014   1.000000
   54        0.930417   1.000000
   55        1.117470   1.000000
   56        1.140887   1.000000
   57        3.272510   0.000000
   58        3.392864   0.000000
   59        4.107245   0.000000
   60        4.147365   0.000000
   61        4.645647   0.000000
   62        4.698196   0.000000
   63        4.714409   0.000000
   64        4.772867   0.000000
   65        5.037111   0.000000
   66        5.095927   0.000000
   67        5.105925   0.000000
   68        5.148249   0.000000
   69        5.946879   0.000000
   70        6.511392   0.000000
   71        7.019496   0.000000
   72        7.328942   0.000000
   73        7.566477   0.000000
   74        7.572710   0.000000
   75        7.627356   0.000000
   76        7.751125   0.000000
   77       11.747006   0.000000
   78       11.808742   0.000000
   79       13.679777   0.000000
   80       13.906293   0.000000
   81       14.451918   0.000000
   82       14.709544   0.000000
   83       14.900195   0.000000
   84       15.200615   0.000000
   85       15.753517   0.000000
   86       15.884781   0.000000
   87       15.956837   0.000000
   88       16.049572   0.000000
   89       16.357274   0.000000
   90       16.720212   0.000000
   91       16.797293   0.000000
   92       17.082676   0.000000
   93       17.219001   0.000000
   94       17.678945   0.000000
   95       18.111593   0.000000
   96       18.228818   0.000000
   97       19.577986   0.000000
   98       19.799603   0.000000
   99       19.878321   0.000000
  100       20.455358   0.000000
  101       21.089770   0.000000
  102       21.147053   0.000000
  103       21.778909   0.000000
  104       22.120277   0.000000
  105       22.731118   0.000000
  106       23.387881   0.000000
  107       23.704634   0.000000
  108       23.964522   0.000000
  109       24.346700   0.000000
  110       24.513313   0.000000
  111       24.940278   0.000000
  112       25.182437   0.000000
  113       25.442980   0.000000
  114       25.591420   0.000000
  115       26.326033   0.000000
  116       26.468693   0.000000
  117       27.151015   0.000000
  118       27.241647   0.000000
  119       27.315515   0.000000
  120       27.639814   0.000000
  121       27.821575   0.000000
  122       28.437983   0.000000
  123       28.828694   0.000000
  124       29.160102   0.000000
  125       29.314225   0.000000
  126       29.568747   0.000000
  127       29.701898   0.000000
  128       30.361948   0.000000
 
  0.4200000E+00  0.5000000E+00  0.0000000E+00  0.1851852E-01
    1      -62.999304   1.000000
    2      -62.997418   1.000000
    3      -62.996338   1.000000
    4      -62.994451   1.000000
    5      -36.991021   1.000000
    6      -36.988783   1.000000
    7      -36.988724   1.000000
    8      -36.985261   1.000000
    9      -36.945035   1.000000
   10      -36.933410   1.000000
   11      -36.912044   1.000000
   12      -36.909154   1.000000
   13      -36.845785   1.000000
   14      -36.845241   1.000000
   15      -36.823849   1.000000
   16      -36.816693   1.000000
   17      -15.721963   1.000000
   18      -15.586653   1.000000
   19      -15.436779   1.000000
   20      -15.293920   1.000000
   21      -15.159647   1.000000
   22      -15.158610   1.000000
   23      -14.738881   1.000000
   24      -14.703084   1.000000
   25      -14.680736   1.000000
   26      -14.643663   1.000000
   27       -3.864152   1.000000
   28       -3.728584   1.000000
   29       -3.438540   1.000000
   30       -3.269775   1.000000
   31       -3.206089   1.000000
   32       -3.027183   1.000000
   33       -3.017549   1.000000
   34       -2.737896   1.000000
   35       -2.724287   1.000000
   36       -2.636245   1.000000
   37       -2.466216   1.000000
   38       -2.265706   1.000000
   39       -2.262601   1.000000
   40       -2.056839   1.000000
   41       -1.900206   1.000000
   42       -1.894132   1.000000
   43       -1.711723   1.000000
   44       -1.495122   1.000000
   45       -1.434339   1.000000
   46       -0.943334   1.000000
   47       -0.238390   1.000000
   48       -0.170252   1.000000
   49       -0.163096   1.000000
   50        0.074151   1.000000
   51        0.866024   1.000000
   52        0.905187   1.000000
   53        0.924672   1.000000
   54        0.929242   1.000000
   55        1.117503   1.000000
   56        1.140917   1.000000
   57        3.272287   0.000000
   58        3.392802   0.000000
   59        4.107349   0.000000
   60        4.147486   0.000000
   61        4.645638   0.000000
   62        4.698348   0.000000
   63        4.714305   0.000000
   64        4.772693   0.000000
   65        5.037220   0.000000
   66        5.095833   0.000000
   67        5.106779   0.000000
   68        5.147775   0.000000
   69        5.946428   0.000000
   70        6.512212   0.000000
   71        7.018697   0.000000
   72        7.328887   0.000000
   73        7.566728   0.000000
   74        7.573274   0.000000
   75        7.626827   0.000000
   76        7.751157   0.000000
   77       11.746939   0.000000
   78       11.808773   0.000000
   79       13.679657   0.000000
   80       13.906632   0.000000
   81       14.451759   0.000000
   82       14.708677   0.000000
   83       14.901263   0.000000
   84       15.199393   0.000000
   85       15.754818   0.000000
   86       15.884961   0.000000
   87       15.957152   0.000000
   88       16.049768   0.000000
   89       16.357398   0.000000
   90       16.727049   0.000000
   91       16.789315   0.000000
   92       17.081894   0.000000
   93       17.219121   0.000000
   94       17.678318   0.000000
   95       18.125708   0.000000
   96       18.214863   0.000000
   97       19.591646   0.000000
   98       19.785079   0.000000
   99       19.879647   0.000000
  100       20.453180   0.000000
  101       21.092082   0.000000
  102       21.149497   0.000000
  103       21.776582   0.000000
  104       22.118130   0.000000
  105       22.733043   0.000000
  106       23.393099   0.000000
  107       23.700626   0.000000
  108       23.971433   0.000000
  109       24.346306   0.000000
  110       24.504641   0.000000
  111       24.942722   0.000000
  112       25.187414   0.000000
  113       25.443210   0.000000
  114       25.584363   0.000000
  115       26.332219   0.000000
  116       26.459862   0.000000
  117       27.151409   0.000000
  118       27.241081   0.000000
  119       27.315829   0.000000
  120       27.639071   0.000000
  121       27.821494   0.000000
  122       28.439409   0.000000
  123       28.828700   0.000000
  124       29.162424   0.000000
  125       29.315875   0.000000
  126       29.574497   0.000000
  127       29.700947   0.000000
  128       30.366312   0.000000
 
  0.4200000E+00  0.5000000E+00  0.1846900E-01  0.1851852E-01
    1      -62.999304   1.000000
    2      -62.997423   1.000000
    3      -62.996335   1.000000
    4      -62.994452   1.000000
    5      -36.991024   1.000000
    6      -36.988825   1.000000
    7      -36.988682   1.000000
    8      -36.985263   1.000000
    9      -36.945026   1.000000
   10      -36.933417   1.000000
   11      -36.912047   1.000000
   12      -36.909160   1.000000
   13      -36.845779   1.000000
   14      -36.845238   1.000000
   15      -36.823848   1.000000
   16      -36.816702   1.000000
   17      -15.721889   1.000000
   18      -15.586857   1.000000
   19      -15.436586   1.000000
   20      -15.294027   1.000000
   21      -15.159657   1.000000
   22      -15.158607   1.000000
   23      -14.738866   1.000000
   24      -14.703157   1.000000
   25      -14.680682   1.000000
   26      -14.643698   1.000000
   27       -3.864076   1.000000
   28       -3.728775   1.000000
   29       -3.438275   1.000000
   30       -3.269826   1.000000
   31       -3.206107   1.000000
   32       -3.028039   1.000000
   33       -3.016908   1.000000
   34       -2.740454   1.000000
   35       -2.722059   1.000000
   36       -2.636231   1.000000
   37       -2.465585   1.000000
   38       -2.265723   1.000000
   39       -2.262511   1.000000
   40       -2.057662   1.000000
   41       -1.899082   1.000000
   42       -1.894591   1.000000
   43       -1.711920   1.000000
   44       -1.494765   1.000000
   45       -1.433870   1.000000
   46       -0.943194   1.000000
   47       -0.248834   1.000000
   48       -0.164809   1.000000
   49       -0.160111   1.000000
   50        0.075542   1.000000
   51        0.864726   1.000000
   52        0.901777   1.000000
   53        0.928014   1.000000
   54        0.930417   1.000000
   55        1.117470   1.000000
   56        1.140887   1.000000
   57        3.272510   0.000000
   58        3.392864   0.000000
   59        4.107245   0.000000
   60        4.147365   0.000000
   61        4.645647   0.000000
   62        4.698196   0.000000
   63        4.714409   0.000000
   64        4.772867   0.000000
   65        5.037111   0.000000
   66        5.095927   0.000000
   67        5.105925   0.000000
   68        5.148249   0.000000
   69        5.946879   0.000000
   70        6.511392   0.000000
   71        7.019496   0.000000
   72        7.328942   0.000000
   73        7.566477   0.000000
   74        7.572710   0.000000
   75        7.627356   0.000000
   76        7.751125   0.000000
   77       11.747006   0.000000
   78       11.808742   0.000000
   79       13.679777   0.000000
   80       13.906293   0.000000
   81       14.451918   0.000000
   82       14.709544   0.000000
   83       14.900195   0.000000
   84       15.200615   0.000000
   85       15.753517   0.000000
   86       15.884781   0.000000
   87       15.956837   0.000000
   88       16.049572   0.000000
   89       16.357274   0.000000
   90       16.720212   0.000000
   91       16.797293   0.000000
   92       17.082676   0.000000
   93       17.219001   0.000000
   94       17.678945   0.000000
   95       18.111593   0.000000
   96       18.228818   0.000000
   97       19.577986   0.000000
   98       19.799603   0.000000
   99       19.878321   0.000000
  100       20.455358   0.000000
  101       21.089770   0.000000
  102       21.147053   0.000000
  103       21.778909   0.000000
  104       22.120277   0.000000
  105       22.731118   0.000000
  106       23.387881   0.000000
  107       23.704634   0.000000
  108       23.964522   0.000000
  109       24.346700   0.000000
  110       24.513313   0.000000
  111       24.940278   0.000000
  112       25.182437   0.000000
  113       25.442980   0.000000
  114       25.591420   0.000000
  115       26.326033   0.000000
  116       26.468693   0.000000
  117       27.151015   0.000000
  118       27.241647   0.000000
  119       27.315515   0.000000
  120       27.639814   0.000000
  121       27.821575   0.000000
  122       28.437983   0.000000
  123       28.828694   0.000000
  124       29.160102   0.000000
  125       29.314225   0.000000
  126       29.568747   0.000000
  127       29.701898   0.000000
  128       30.361947   0.000000
 
  0.4200000E+00  0.5067853E+00 -0.1846900E-01  0.1851852E-01
    1      -62.999304   1.000000
    2      -62.997423   1.000000
    3      -62.996335   1.000000
    4      -62.994452   1.000000
    5      -36.991025   1.000000
    6      -36.988822   1.000000
    7      -36.988680   1.000000
    8      -36.985260   1.000000
    9      -36.945026   1.000000
   10      -36.933418   1.000000
   11      -36.912047   1.000000
   12      -36.909161   1.000000
   13      -36.845780   1.000000
   14      -36.845238   1.000000
   15      -36.823849   1.000000
   16      -36.816702   1.000000
   17      -15.721929   1.000000
   18      -15.586887   1.000000
   19      -15.436605   1.000000
   20      -15.294044   1.000000
   21      -15.159686   1.000000
   22      -15.158628   1.000000
   23      -14.738903   1.000000
   24      -14.703219   1.000000
   25      -14.680726   1.000000
   26      -14.643785   1.000000
   27       -3.864083   1.000000
   28       -3.728798   1.000000
   29       -3.438215   1.000000
   30       -3.269718   1.000000
   31       -3.206002   1.000000
   32       -3.028013   1.000000
   33       -3.016609   1.000000
   34       -2.740210   1.000000
   35       -2.721699   1.000000
   36       -2.635943   1.000000
   37       -2.465398   1.000000
   38       -2.265385   1.000000
   39       -2.262287   1.000000
   40       -2.057288   1.000000
   41       -1.899077   1.000000
   42       -1.894190   1.000000
   43       -1.711822   1.000000
   44       -1.494589   1.000000
   45       -1.433665   1.000000
   46       -0.943141   1.000000
   47       -0.248917   1.000000
   48       -0.165528   1.000000
   49       -0.159529   1.000000
   50        0.075443   1.000000
   51        0.864379   1.000000
   52        0.901536   1.000000
   53        0.927684   1.000000
   54        0.930227   1.000000
   55        1.117146   1.000000
   56        1.140543   1.000000
   57        3.272455   0.000000
   58        3.392824   0.000000
   59        4.107172   0.000000
   60        4.147310   0.000000
   61        4.645498   0.000000
   62        4.698139   0.000000
   63        4.714392   0.000000
   64        4.772820   0.000000
   65        5.037134   0.000000
   66        5.095948   0.000000
   67        5.106030   0.000000
   68        5.148190   0.000000
   69        5.946889   0.000000
   70        6.511371   0.000000
   71        7.019512   0.000000
   72        7.328213   0.000000
   73        7.566361   0.000000
   74        7.572049   0.000000
   75        7.626511   0.000000
   76        7.750467   0.000000
   77       11.746927   0.000000
   78       11.808600   0.000000
   79       13.679362   0.000000
   80       13.906875   0.000000
   81       14.452408   0.000000
   82       14.701723   0.000000
   83       14.907929   0.000000
   84       15.198095   0.000000
   85       15.750548   0.000000
   86       15.887124   0.000000
   87       15.959754   0.000000
   88       16.049521   0.000000
   89       16.358257   0.000000
   90       16.720647   0.000000
   91       16.795860   0.000000
   92       17.085262   0.000000
   93       17.218838   0.000000
   94       17.679374   0.000000
   95       18.111966   0.000000
   96       18.229615   0.000000
   97       19.577790   0.000000
   98       19.795209   0.000000
   99       19.882925   0.000000
  100       20.454924   0.000000
  101       21.089406   0.000000
  102       21.148171   0.000000
  103       21.778531   0.000000
  104       22.120927   0.000000
  105       22.730597   0.000000
  106       23.387220   0.000000
  107       23.701337   0.000000
  108       23.961298   0.000000
  109       24.348378   0.000000
  110       24.514023   0.000000
  111       24.942188   0.000000
  112       25.182752   0.000000
  113       25.439968   0.000000
  114       25.589933   0.000000
  115       26.325631   0.000000
  116       26.468791   0.000000
  117       27.150451   0.000000
  118       27.244789   0.000000
  119       27.315216   0.000000
  120       27.641219   0.000000
  121       27.821344   0.000000
  122       28.438217   0.000000
  123       28.830836   0.000000
  124       29.159942   0.000000
  125       29.315495   0.000000
  126       29.568043   0.000000
  127       29.697994   0.000000
  128       30.362655   0.000000
 
  0.4200000E+00  0.5067853E+00  0.0000000E+00  0.1851852E-01
    1      -62.999305   1.000000
    2      -62.997418   1.000000
    3      -62.996340   1.000000
    4      -62.994451   1.000000
    5      -36.991025   1.000000
    6      -36.988782   1.000000
    7      -36.988720   1.000000
    8      -36.985254   1.000000
    9      -36.945037   1.000000
   10      -36.933410   1.000000
   11      -36.912044   1.000000
   12      -36.909155   1.000000
   13      -36.845787   1.000000
   14      -36.845242   1.000000
   15      -36.823851   1.000000
   16      -36.816693   1.000000
   17      -15.721999   1.000000
   18      -15.586673   1.000000
   19      -15.436833   1.000000
   20      -15.293947   1.000000
   21      -15.159681   1.000000
   22      -15.158634   1.000000
   23      -14.738920   1.000000
   24      -14.703138   1.000000
   25      -14.680807   1.000000
   26      -14.643760   1.000000
   27       -3.864161   1.000000
   28       -3.728611   1.000000
   29       -3.438480   1.000000
   30       -3.269667   1.000000
   31       -3.205984   1.000000
   32       -3.027173   1.000000
   33       -3.017236   1.000000
   34       -2.737669   1.000000
   35       -2.723911   1.000000
   36       -2.635957   1.000000
   37       -2.466029   1.000000
   38       -2.265356   1.000000
   39       -2.262389   1.000000
   40       -2.056464   1.000000
   41       -1.900193   1.000000
   42       -1.893741   1.000000
   43       -1.711624   1.000000
   44       -1.494945   1.000000
   45       -1.434134   1.000000
   46       -0.943282   1.000000
   47       -0.238472   1.000000
   48       -0.170827   1.000000
   49       -0.162659   1.000000
   50        0.074052   1.000000
   51        0.865675   1.000000
   52        0.904951   1.000000
   53        0.924361   1.000000
   54        0.929030   1.000000
   55        1.117179   1.000000
   56        1.140573   1.000000
   57        3.272232   0.000000
   58        3.392763   0.000000
   59        4.107274   0.000000
   60        4.147428   0.000000
   61        4.645488   0.000000
   62        4.698293   0.000000
   63        4.714287   0.000000
   64        4.772646   0.000000
   65        5.037243   0.000000
   66        5.095856   0.000000
   67        5.106884   0.000000
   68        5.147712   0.000000
   69        5.946438   0.000000
   70        6.512190   0.000000
   71        7.018709   0.000000
   72        7.328157   0.000000
   73        7.566608   0.000000
   74        7.572613   0.000000
   75        7.625982   0.000000
   76        7.750499   0.000000
   77       11.746852   0.000000
   78       11.808632   0.000000
   79       13.679241   0.000000
   80       13.907197   0.000000
   81       14.452251   0.000000
   82       14.700911   0.000000
   83       14.908960   0.000000
   84       15.196853   0.000000
   85       15.751800   0.000000
   86       15.887276   0.000000
   87       15.960096   0.000000
   88       16.049723   0.000000
   89       16.358354   0.000000
   90       16.727587   0.000000
   91       16.787768   0.000000
   92       17.084439   0.000000
   93       17.218978   0.000000
   94       17.678737   0.000000
   95       18.125990   0.000000
   96       18.215759   0.000000
   97       19.591481   0.000000
   98       19.781125   0.000000
   99       19.883717   0.000000
  100       20.452745   0.000000
  101       21.091711   0.000000
  102       21.150621   0.000000
  103       21.776194   0.000000
  104       22.118748   0.000000
  105       22.732498   0.000000
  106       23.392473   0.000000
  107       23.697282   0.000000
  108       23.968098   0.000000
  109       24.348151   0.000000
  110       24.505325   0.000000
  111       24.944588   0.000000
  112       25.187773   0.000000
  113       25.440192   0.000000
  114       25.582833   0.000000
  115       26.331749   0.000000
  116       26.460014   0.000000
  117       27.150837   0.000000
  118       27.244262   0.000000
  119       27.315504   0.000000
  120       27.640479   0.000000
  121       27.821244   0.000000
  122       28.439636   0.000000
  123       28.830882   0.000000
  124       29.162270   0.000000
  125       29.317168   0.000000
  126       29.573746   0.000000
  127       29.697058   0.000000
  128       30.367184   0.000000
 
  0.4200000E+00  0.5067853E+00  0.1846900E-01  0.1851852E-01
    1      -62.999304   1.000000
    2      -62.997423   1.000000
    3      -62.996335   1.000000
    4      -62.994452   1.000000
    5      -36.991025   1.000000
    6      -36.988822   1.000000
    7      -36.988680   1.000000
    8      -36.985260   1.000000
    9      -36.945026   1.000000
   10      -36.933418   1.000000
   11      -36.912047   1.000000
   12      -36.909161   1.000000
   13      -36.845780   1.000000
   14      -36.845238   1.000000
   15      -36.823849   1.000000
   16      -36.816702   1.000000
   17      -15.721929   1.000000
   18      -15.586887   1.000000
   19      -15.436605   1.000000
   20      -15.294044   1.000000
   21      -15.159686   1.000000
   22      -15.158628   1.000000
   23      -14.738903   1.000000
   24      -14.703219   1.000000
   25      -14.680726   1.000000
   26      -14.643785   1.000000
   27       -3.864083   1.000000
   28       -3.728798   1.000000
   29       -3.438215   1.000000
   30       -3.269718   1.000000
   31       -3.206002   1.000000
   32       -3.028013   1.000000
   33       -3.016609   1.000000
   34       -2.740210   1.000000
   35       -2.721699   1.000000
   36       -2.635943   1.000000
   37       -2.465398   1.000000
   38       -2.265385   1.000000
   39       -2.262287   1.000000
   40       -2.057288   1.000000
   41       -1.899077   1.000000
   42       -1.894190   1.000000
   43       -1.711822   1.000000
   44       -1.494589   1.000000
   45       -1.433665   1.000000
   46       -0.943141   1.000000
   47       -0.248917   1.000000
   48       -0.165528   1.000000
   49       -0.159529   1.000000
   50        0.075443   1.000000
   51        0.864379   1.000000
   52        0.901536   1.000000
   53        0.927684   1.000000
   54        0.930227   1.000000
   55        1.117146   1.000000
   56        1.140543   1.000000
   57        3.272455   0.000000
   58        3.392824   0.000000
   59        4.107172   0.000000
   60        4.147310   0.000000
   61        4.645498   0.000000
   62        4.698139   0.000000
   63        4.714392   0.000000
   64        4.772820   0.000000
   65        5.037134   0.000000
   66        5.095948   0.000000
   67        5.106030   0.000000
   68        5.148190   0.000000
   69        5.946889   0.000000
   70        6.511371   0.000000
   71        7.019512   0.000000
   72        7.328213   0.000000
   73        7.566361   0.000000
   74        7.572049   0.000000
   75        7.626511   0.000000
   76        7.750467   0.000000
   77       11.746927   0.000000
   78       11.808600   0.000000
   79       13.679362   0.000000
   80       13.906875   0.000000
   81       14.452408   0.000000
   82       14.701723   0.000000
   83       14.907929   0.000000
   84       15.198095   0.000000
   85       15.750548   0.000000
   86       15.887124   0.000000
   87       15.959754   0.000000
   88       16.049521   0.000000
   89       16.358257   0.000000
   90       16.720647   0.000000
   91       16.795860   0.000000
   92       17.085262   0.000000
   93       17.218838   0.000000
   94       17.679374   0.000000
   95       18.111966   0.000000
   96       18.229615   0.000000
   97       19.577790   0.000000
   98       19.795209   0.000000
   99       19.882925   0.000000
  100       20.454924   0.000000
  101       21.089406   0.000000
  102       21.148171   0.000000
  103       21.778531   0.000000
  104       22.120927   0.000000
  105       22.730597   0.000000
  106       23.387220   0.000000
  107       23.701337   0.000000
  108       23.961298   0.000000
  109       24.348378   0.000000
  110       24.514023   0.000000
  111       24.942188   0.000000
  112       25.182752   0.000000
  113       25.439968   0.000000
  114       25.589933   0.000000
  115       26.325631   0.000000
  116       26.468791   0.000000
  117       27.150451   0.000000
  118       27.244789   0.000000
  119       27.315216   0.000000
  120       27.641219   0.000000
  121       27.821344   0.000000
  122       28.438217   0.000000
  123       28.830836   0.000000
  124       29.159942   0.000000
  125       29.315495   0.000000
  126       29.568043   0.000000
  127       29.697994   0.000000
  128       30.362668   0.000000
 
  0.4256528E+00  0.4932147E+00 -0.1846900E-01  0.1851852E-01
    1      -62.999181   1.000000
    2      -62.997302   1.000000
    3      -62.996418   1.000000
    4      -62.994536   1.000000
    5      -36.990887   1.000000
    6      -36.988797   1.000000
    7      -36.988556   1.000000
    8      -36.985332   1.000000
    9      -36.944900   1.000000
   10      -36.934182   1.000000
   11      -36.912312   1.000000
   12      -36.909705   1.000000
   13      -36.845933   1.000000
   14      -36.845494   1.000000
   15      -36.823720   1.000000
   16      -36.817010   1.000000
   17      -15.708591   1.000000
   18      -15.572985   1.000000
   19      -15.443031   1.000000
   20      -15.300094   1.000000
   21      -15.158533   1.000000
   22      -15.157881   1.000000
   23      -14.736434   1.000000
   24      -14.700734   1.000000
   25      -14.682257   1.000000
   26      -14.645391   1.000000
   27       -3.852412   1.000000
   28       -3.712692   1.000000
   29       -3.454379   1.000000
   30       -3.279261   1.000000
   31       -3.201581   1.000000
   32       -3.037337   1.000000
   33       -3.003819   1.000000
   34       -2.734549   1.000000
   35       -2.718736   1.000000
   36       -2.638964   1.000000
   37       -2.465621   1.000000
   38       -2.293234   1.000000
   39       -2.281923   1.000000
   40       -2.057053   1.000000
   41       -1.915763   1.000000
   42       -1.902437   1.000000
   43       -1.686817   1.000000
   44       -1.495874   1.000000
   45       -1.441071   1.000000
   46       -0.967417   1.000000
   47       -0.239608   1.000000
   48       -0.168288   1.000000
   49       -0.162468   1.000000
   50        0.066922   1.000000
   51        0.869892   1.000000
   52        0.902454   1.000000
   53        0.929144   1.000000
   54        0.929891   1.000000
   55        1.120072   1.000000
   56        1.142113   1.000000
   57        3.277191   0.000000
   58        3.390507   0.000000
   59        4.107106   0.000000
   60        4.145885   0.000000
   61        4.651920   0.000000
   62        4.698863   0.000000
   63        4.714372   0.000000
   64        4.771824   0.000000
   65        5.043677   0.000000
   66        5.100970   0.000000
   67        5.110032   0.000000
   68        5.147125   0.000000
   69        5.964272   0.000000
   70        6.492559   0.000000
   71        7.033910   0.000000
   72        7.327323   0.000000
   73        7.556499   0.000000
   74        7.576514   0.000000
   75        7.617234   0.000000
   76        7.743075   0.000000
   77       11.751852   0.000000
   78       11.811150   0.000000
   79       13.710818   0.000000
   80       13.926429   0.000000
   81       14.467877   0.000000
   82       14.727681   0.000000
   83       14.933160   0.000000
   84       15.163625   0.000000
   85       15.722529   0.000000
   86       15.859033   0.000000
   87       15.928823   0.000000
   88       16.013367   0.000000
   89       16.382403   0.000000
   90       16.719281   0.000000
   91       16.833401   0.000000
   92       17.083889   0.000000
   93       17.214196   0.000000
   94       17.688603   0.000000
   95       18.084147   0.000000
   96       18.182578   0.000000
   97       19.603349   0.000000
   98       19.819777   0.000000
   99       19.902236   0.000000
  100       20.419464   0.000000
  101       21.079643   0.000000
  102       21.131027   0.000000
  103       21.781890   0.000000
  104       22.098765   0.000000
  105       22.752338   0.000000
  106       23.368773   0.000000
  107       23.740579   0.000000
  108       24.011271   0.000000
  109       24.359657   0.000000
  110       24.552045   0.000000
  111       24.943803   0.000000
  112       25.168313   0.000000
  113       25.434925   0.000000
  114       25.566586   0.000000
  115       26.390847   0.000000
  116       26.475305   0.000000
  117       27.164217   0.000000
  118       27.241221   0.000000
  119       27.356897   0.000000
  120       27.592097   0.000000
  121       27.802230   0.000000
  122       28.449464   0.000000
  123       28.831876   0.000000
  124       29.168065   0.000000
  125       29.298490   0.000000
  126       29.536781   0.000000
  127       29.687329   0.000000
  128       30.429690   0.000000
 
  0.4256528E+00  0.4932147E+00  0.0000000E+00  0.1851852E-01
    1      -62.999182   1.000000
    2      -62.997297   1.000000
    3      -62.996423   1.000000
    4      -62.994534   1.000000
    5      -36.990888   1.000000
    6      -36.988781   1.000000
    7      -36.988576   1.000000
    8      -36.985331   1.000000
    9      -36.944911   1.000000
   10      -36.934175   1.000000
   11      -36.912308   1.000000
   12      -36.909699   1.000000
   13      -36.845941   1.000000
   14      -36.845498   1.000000
   15      -36.823722   1.000000
   16      -36.817002   1.000000
   17      -15.708677   1.000000
   18      -15.572740   1.000000
   19      -15.443261   1.000000
   20      -15.300015   1.000000
   21      -15.158534   1.000000
   22      -15.157891   1.000000
   23      -14.736454   1.000000
   24      -14.700633   1.000000
   25      -14.682344   1.000000
   26      -14.645385   1.000000
   27       -3.852491   1.000000
   28       -3.712495   1.000000
   29       -3.454652   1.000000
   30       -3.279207   1.000000
   31       -3.201558   1.000000
   32       -3.036812   1.000000
   33       -3.004139   1.000000
   34       -2.731775   1.000000
   35       -2.721186   1.000000
   36       -2.638985   1.000000
   37       -2.466199   1.000000
   38       -2.293198   1.000000
   39       -2.282067   1.000000
   40       -2.056131   1.000000
   41       -1.917061   1.000000
   42       -1.902015   1.000000
   43       -1.686462   1.000000
   44       -1.496191   1.000000
   45       -1.441621   1.000000
   46       -0.967558   1.000000
   47       -0.227141   1.000000
   48       -0.175534   1.000000
   49       -0.165597   1.000000
   50        0.065435   1.000000
   51        0.871325   1.000000
   52        0.905805   1.000000
   53        0.925952   1.000000
   54        0.928492   1.000000
   55        1.120105   1.000000
   56        1.142144   1.000000
   57        3.276969   0.000000
   58        3.390436   0.000000
   59        4.107212   0.000000
   60        4.146008   0.000000
   61        4.651921   0.000000
   62        4.699015   0.000000
   63        4.714260   0.000000
   64        4.771648   0.000000
   65        5.043808   0.000000
   66        5.100862   0.000000
   67        5.110990   0.000000
   68        5.146523   0.000000
   69        5.963847   0.000000
   70        6.493281   0.000000
   71        7.033197   0.000000
   72        7.327279   0.000000
   73        7.556722   0.000000
   74        7.577216   0.000000
   75        7.616561   0.000000
   76        7.743107   0.000000
   77       11.751783   0.000000
   78       11.811176   0.000000
   79       13.710699   0.000000
   80       13.926732   0.000000
   81       14.467716   0.000000
   82       14.726904   0.000000
   83       14.934455   0.000000
   84       15.162123   0.000000
   85       15.723664   0.000000
   86       15.859198   0.000000
   87       15.929108   0.000000
   88       16.013518   0.000000
   89       16.382531   0.000000
   90       16.723840   0.000000
   91       16.827819   0.000000
   92       17.083033   0.000000
   93       17.214456   0.000000
   94       17.687889   0.000000
   95       18.101973   0.000000
   96       18.164869   0.000000
   97       19.617107   0.000000
   98       19.805696   0.000000
   99       19.903421   0.000000
  100       20.416894   0.000000
  101       21.081923   0.000000
  102       21.133456   0.000000
  103       21.779506   0.000000
  104       22.096584   0.000000
  105       22.754223   0.000000
  106       23.373189   0.000000
  107       23.737237   0.000000
  108       24.018827   0.000000
  109       24.359524   0.000000
  110       24.542743   0.000000
  111       24.946996   0.000000
  112       25.172814   0.000000
  113       25.435131   0.000000
  114       25.558948   0.000000
  115       26.402698   0.000000
  116       26.460973   0.000000
  117       27.164593   0.000000
  118       27.240677   0.000000
  119       27.357389   0.000000
  120       27.591193   0.000000
  121       27.802040   0.000000
  122       28.450812   0.000000
  123       28.831913   0.000000
  124       29.170448   0.000000
  125       29.299795   0.000000
  126       29.542282   0.000000
  127       29.686756   0.000000
  128       30.435756   0.000000
 
  0.4256528E+00  0.4932147E+00  0.1846900E-01  0.1851852E-01
    1      -62.999181   1.000000
    2      -62.997302   1.000000
    3      -62.996418   1.000000
    4      -62.994536   1.000000
    5      -36.990887   1.000000
    6      -36.988797   1.000000
    7      -36.988556   1.000000
    8      -36.985332   1.000000
    9      -36.944900   1.000000
   10      -36.934182   1.000000
   11      -36.912312   1.000000
   12      -36.909705   1.000000
   13      -36.845933   1.000000
   14      -36.845494   1.000000
   15      -36.823720   1.000000
   16      -36.817010   1.000000
   17      -15.708591   1.000000
   18      -15.572985   1.000000
   19      -15.443031   1.000000
   20      -15.300094   1.000000
   21      -15.158533   1.000000
   22      -15.157881   1.000000
   23      -14.736434   1.000000
   24      -14.700734   1.000000
   25      -14.682257   1.000000
   26      -14.645391   1.000000
   27       -3.852412   1.000000
   28       -3.712692   1.000000
   29       -3.454379   1.000000
   30       -3.279261   1.000000
   31       -3.201581   1.000000
   32       -3.037337   1.000000
   33       -3.003819   1.000000
   34       -2.734549   1.000000
   35       -2.718736   1.000000
   36       -2.638964   1.000000
   37       -2.465621   1.000000
   38       -2.293234   1.000000
   39       -2.281923   1.000000
   40       -2.057053   1.000000
   41       -1.915763   1.000000
   42       -1.902437   1.000000
   43       -1.686817   1.000000
   44       -1.495874   1.000000
   45       -1.441071   1.000000
   46       -0.967417   1.000000
   47       -0.239608   1.000000
   48       -0.168288   1.000000
   49       -0.162468   1.000000
   50        0.066922   1.000000
   51        0.869892   1.000000
   52        0.902454   1.000000
   53        0.929144   1.000000
   54        0.929891   1.000000
   55        1.120072   1.000000
   56        1.142113   1.000000
   57        3.277191   0.000000
   58        3.390507   0.000000
   59        4.107106   0.000000
   60        4.145885   0.000000
   61        4.651920   0.000000
   62        4.698863   0.000000
   63        4.714372   0.000000
   64        4.771824   0.000000
   65        5.043677   0.000000
   66        5.100970   0.000000
   67        5.110032   0.000000
   68        5.147125   0.000000
   69        5.964272   0.000000
   70        6.492559   0.000000
   71        7.033910   0.000000
   72        7.327323   0.000000
   73        7.556499   0.000000
   74        7.576514   0.000000
   75        7.617234   0.000000
   76        7.743075   0.000000
   77       11.751852   0.000000
   78       11.811150   0.000000
   79       13.710818   0.000000
   80       13.926429   0.000000
   81       14.467877   0.000000
   82       14.727681   0.000000
   83       14.933160   0.000000
   84       15.163625   0.000000
   85       15.722529   0.000000
   86       15.859033   0.000000
   87       15.928823   0.000000
   88       16.013367   0.000000
   89       16.382403   0.000000
   90       16.719281   0.000000
   91       16.833401   0.000000
   92       17.083889   0.000000
   93       17.214196   0.000000
   94       17.688603   0.000000
   95       18.084147   0.000000
   96       18.182578   0.000000
   97       19.603349   0.000000
   98       19.819777   0.000000
   99       19.902236   0.000000
  100       20.419464   0.000000
  101       21.079643   0.000000
  102       21.131027   0.000000
  103       21.781890   0.000000
  104       22.098765   0.000000
  105       22.752338   0.000000
  106       23.368773   0.000000
  107       23.740579   0.000000
  108       24.011271   0.000000
  109       24.359657   0.000000
  110       24.552045   0.000000
  111       24.943803   0.000000
  112       25.168313   0.000000
  113       25.434925   0.000000
  114       25.566586   0.000000
  115       26.390847   0.000000
  116       26.475305   0.000000
  117       27.164217   0.000000
  118       27.241221   0.000000
  119       27.356897   0.000000
  120       27.592097   0.000000
  121       27.802230   0.000000
  122       28.449464   0.000000
  123       28.831876   0.000000
  124       29.168065   0.000000
  125       29.298490   0.000000
  126       29.536781   0.000000
  127       29.687329   0.000000
  128       30.429496   0.000000
 
  0.4256528E+00  0.5000000E+00 -0.1846900E-01  0.1851852E-01
    1      -62.999182   1.000000
    2      -62.997302   1.000000
    3      -62.996418   1.000000
    4      -62.994536   1.000000
    5      -36.990891   1.000000
    6      -36.988803   1.000000
    7      -36.988561   1.000000
    8      -36.985337   1.000000
    9      -36.944900   1.000000
   10      -36.934181   1.000000
   11      -36.912311   1.000000
   12      -36.909705   1.000000
   13      -36.845932   1.000000
   14      -36.845495   1.000000
   15      -36.823720   1.000000
   16      -36.817011   1.000000
   17      -15.708550   1.000000
   18      -15.572956   1.000000
   19      -15.443000   1.000000
   20      -15.300096   1.000000
   21      -15.158514   1.000000
   22      -15.157876   1.000000
   23      -14.736412   1.000000
   24      -14.700673   1.000000
   25      -14.682215   1.000000
   26      -14.645314   1.000000
   27       -3.852406   1.000000
   28       -3.712670   1.000000
   29       -3.454437   1.000000
   30       -3.279364   1.000000
   31       -3.201683   1.000000
   32       -3.037347   1.000000
   33       -3.004123   1.000000
   34       -2.734805   1.000000
   35       -2.719098   1.000000
   36       -2.639246   1.000000
   37       -2.465821   1.000000
   38       -2.293564   1.000000
   39       -2.282133   1.000000
   40       -2.057449   1.000000
   41       -1.915777   1.000000
   42       -1.902840   1.000000
   43       -1.686909   1.000000
   44       -1.496053   1.000000
   45       -1.441277   1.000000
   46       -0.967471   1.000000
   47       -0.239523   1.000000
   48       -0.167679   1.000000
   49       -0.162940   1.000000
   50        0.067020   1.000000
   51        0.870238   1.000000
   52        0.902694   1.000000
   53        0.929541   1.000000
   54        0.930019   1.000000
   55        1.120398   1.000000
   56        1.142459   1.000000
   57        3.277244   0.000000
   58        3.390547   0.000000
   59        4.107177   0.000000
   60        4.145941   0.000000
   61        4.652062   0.000000
   62        4.698917   0.000000
   63        4.714389   0.000000
   64        4.771870   0.000000
   65        5.043656   0.000000
   66        5.100944   0.000000
   67        5.109930   0.000000
   68        5.147180   0.000000
   69        5.964264   0.000000
   70        6.492580   0.000000
   71        7.033894   0.000000
   72        7.328028   0.000000
   73        7.556639   0.000000
   74        7.577176   0.000000
   75        7.618067   0.000000
   76        7.743733   0.000000
   77       11.751915   0.000000
   78       11.811261   0.000000
   79       13.711243   0.000000
   80       13.925863   0.000000
   81       14.467430   0.000000
   82       14.735116   0.000000
   83       14.925935   0.000000
   84       15.166130   0.000000
   85       15.725349   0.000000
   86       15.856673   0.000000
   87       15.925813   0.000000
   88       16.013324   0.000000
   89       16.381536   0.000000
   90       16.718787   0.000000
   91       16.835260   0.000000
   92       17.081139   0.000000
   93       17.214255   0.000000
   94       17.688165   0.000000
   95       18.083708   0.000000
   96       18.181786   0.000000
   97       19.603553   0.000000
   98       19.824023   0.000000
   99       19.897850   0.000000
  100       20.419888   0.000000
  101       21.080019   0.000000
  102       21.129878   0.000000
  103       21.782222   0.000000
  104       22.098077   0.000000
  105       22.752873   0.000000
  106       23.369425   0.000000
  107       23.744022   0.000000
  108       24.014690   0.000000
  109       24.357900   0.000000
  110       24.551296   0.000000
  111       24.941733   0.000000
  112       25.167973   0.000000
  113       25.438083   0.000000
  114       25.567870   0.000000
  115       26.391269   0.000000
  116       26.475396   0.000000
  117       27.164735   0.000000
  118       27.238122   0.000000
  119       27.357204   0.000000
  120       27.590580   0.000000
  121       27.802434   0.000000
  122       28.449460   0.000000
  123       28.829640   0.000000
  124       29.168304   0.000000
  125       29.296888   0.000000
  126       29.537528   0.000000
  127       29.691171   0.000000
  128       30.428944   0.000000
 
  0.4256528E+00  0.5000000E+00  0.0000000E+00  0.1851852E-01
    1      -62.999182   1.000000
    2      -62.997298   1.000000
    3      -62.996424   1.000000
    4      -62.994535   1.000000
    5      -36.990900   1.000000
    6      -36.988787   1.000000
    7      -36.988582   1.000000
    8      -36.985337   1.000000
    9      -36.944908   1.000000
   10      -36.934175   1.000000
   11      -36.912307   1.000000
   12      -36.909697   1.000000
   13      -36.845942   1.000000
   14      -36.845499   1.000000
   15      -36.823723   1.000000
   16      -36.817002   1.000000
   17      -15.708631   1.000000
   18      -15.572715   1.000000
   19      -15.443229   1.000000
   20      -15.300034   1.000000
   21      -15.158514   1.000000
   22      -15.157894   1.000000
   23      -14.736442   1.000000
   24      -14.700569   1.000000
   25      -14.682307   1.000000
   26      -14.645313   1.000000
   27       -3.852484   1.000000
   28       -3.712476   1.000000
   29       -3.454710   1.000000
   30       -3.279311   1.000000
   31       -3.201660   1.000000
   32       -3.036820   1.000000
   33       -3.004445   1.000000
   34       -2.732009   1.000000
   35       -2.721571   1.000000
   36       -2.639268   1.000000
   37       -2.466401   1.000000
   38       -2.293532   1.000000
   39       -2.282273   1.000000
   40       -2.056529   1.000000
   41       -1.917075   1.000000
   42       -1.902414   1.000000
   43       -1.686554   1.000000
   44       -1.496370   1.000000
   45       -1.441828   1.000000
   46       -0.967612   1.000000
   47       -0.227057   1.000000
   48       -0.175116   1.000000
   49       -0.165875   1.000000
   50        0.065532   1.000000
   51        0.871675   1.000000
   52        0.906040   1.000000
   53        0.926266   1.000000
   54        0.928705   1.000000
   55        1.120432   1.000000
   56        1.142490   1.000000
   57        3.277023   0.000000
   58        3.390477   0.000000
   59        4.107284   0.000000
   60        4.146065   0.000000
   61        4.652063   0.000000
   62        4.699068   0.000000
   63        4.714276   0.000000
   64        4.771694   0.000000
   65        5.043787   0.000000
   66        5.100833   0.000000
   67        5.110886   0.000000
   68        5.146582   0.000000
   69        5.963840   0.000000
   70        6.493301   0.000000
   71        7.033179   0.000000
   72        7.327984   0.000000
   73        7.556857   0.000000
   74        7.577868   0.000000
   75        7.617397   0.000000
   76        7.743767   0.000000
   77       11.751845   0.000000
   78       11.811286   0.000000
   79       13.711115   0.000000
   80       13.926164   0.000000
   81       14.467267   0.000000
   82       14.734292   0.000000
   83       14.927255   0.000000
   84       15.164651   0.000000
   85       15.726486   0.000000
   86       15.856833   0.000000
   87       15.926048   0.000000
   88       16.013467   0.000000
   89       16.381665   0.000000
   90       16.723297   0.000000
   91       16.829701   0.000000
   92       17.080294   0.000000
   93       17.214497   0.000000
   94       17.687447   0.000000
   95       18.101661   0.000000
   96       18.163949   0.000000
   97       19.617252   0.000000
   98       19.809447   0.000000
   99       19.899567   0.000000
  100       20.417325   0.000000
  101       21.082296   0.000000
  102       21.132305   0.000000
  103       21.779840   0.000000
  104       22.095881   0.000000
  105       22.754747   0.000000
  106       23.373820   0.000000
  107       23.740723   0.000000
  108       24.022402   0.000000
  109       24.357539   0.000000
  110       24.542029   0.000000
  111       24.944934   0.000000
  112       25.172416   0.000000
  113       25.438298   0.000000
  114       25.560271   0.000000
  115       26.403242   0.000000
  116       26.460938   0.000000
  117       27.165163   0.000000
  118       27.237555   0.000000
  119       27.357706   0.000000
  120       27.589672   0.000000
  121       27.802249   0.000000
  122       28.450811   0.000000
  123       28.829669   0.000000
  124       29.170709   0.000000
  125       29.298179   0.000000
  126       29.543050   0.000000
  127       29.690627   0.000000
  128       30.434766   0.000000
 
  0.4256528E+00  0.5000000E+00  0.1846900E-01  0.1851852E-01
    1      -62.999182   1.000000
    2      -62.997302   1.000000
    3      -62.996418   1.000000
    4      -62.994536   1.000000
    5      -36.990891   1.000000
    6      -36.988803   1.000000
    7      -36.988561   1.000000
    8      -36.985337   1.000000
    9      -36.944900   1.000000
   10      -36.934181   1.000000
   11      -36.912311   1.000000
   12      -36.909705   1.000000
   13      -36.845932   1.000000
   14      -36.845495   1.000000
   15      -36.823720   1.000000
   16      -36.817011   1.000000
   17      -15.708550   1.000000
   18      -15.572956   1.000000
   19      -15.443000   1.000000
   20      -15.300096   1.000000
   21      -15.158514   1.000000
   22      -15.157876   1.000000
   23      -14.736412   1.000000
   24      -14.700673   1.000000
   25      -14.682215   1.000000
   26      -14.645314   1.000000
   27       -3.852406   1.000000
   28       -3.712670   1.000000
   29       -3.454437   1.000000
   30       -3.279364   1.000000
   31       -3.201683   1.000000
   32       -3.037347   1.000000
   33       -3.004123   1.000000
   34       -2.734805   1.000000
   35       -2.719098   1.000000
   36       -2.639246   1.000000
   37       -2.465821   1.000000
   38       -2.293564   1.000000
   39       -2.282133   1.000000
   40       -2.057449   1.000000
   41       -1.915777   1.000000
   42       -1.902840   1.000000
   43       -1.686909   1.000000
   44       -1.496053   1.000000
   45       -1.441277   1.000000
   46       -0.967471   1.000000
   47       -0.239523   1.000000
   48       -0.167679   1.000000
   49       -0.162940   1.000000
   50        0.067020   1.000000
   51        0.870238   1.000000
   52        0.902694   1.000000
   53        0.929541   1.000000
   54        0.930019   1.000000
   55        1.120398   1.000000
   56        1.142459   1.000000
   57        3.277244   0.000000
   58        3.390547   0.000000
   59        4.107177   0.000000
   60        4.145941   0.000000
   61        4.652062   0.000000
   62        4.698917   0.000000
   63        4.714389   0.000000
   64        4.771870   0.000000
   65        5.043656   0.000000
   66        5.100944   0.000000
   67        5.109930   0.000000
   68        5.147180   0.000000
   69        5.964264   0.000000
   70        6.492580   0.000000
   71        7.033894   0.000000
   72        7.328028   0.000000
   73        7.556639   0.000000
   74        7.577176   0.000000
   75        7.618067   0.000000
   76        7.743733   0.000000
   77       11.751915   0.000000
   78       11.811261   0.000000
   79       13.711243   0.000000
   80       13.925863   0.000000
   81       14.467430   0.000000
   82       14.735116   0.000000
   83       14.925935   0.000000
   84       15.166130   0.000000
   85       15.725349   0.000000
   86       15.856673   0.000000
   87       15.925813   0.000000
   88       16.013324   0.000000
   89       16.381536   0.000000
   90       16.718787   0.000000
   91       16.835260   0.000000
   92       17.081139   0.000000
   93       17.214255   0.000000
   94       17.688165   0.000000
   95       18.083708   0.000000
   96       18.181786   0.000000
   97       19.603553   0.000000
   98       19.824023   0.000000
   99       19.897850   0.000000
  100       20.419888   0.000000
  101       21.080019   0.000000
  102       21.129878   0.000000
  103       21.782222   0.000000
  104       22.098077   0.000000
  105       22.752873   0.000000
  106       23.369425   0.000000
  107       23.744022   0.000000
  108       24.014690   0.000000
  109       24.357900   0.000000
  110       24.551296   0.000000
  111       24.941733   0.000000
  112       25.167973   0.000000
  113       25.438083   0.000000
  114       25.567870   0.000000
  115       26.391269   0.000000
  116       26.475396   0.000000
  117       27.164735   0.000000
  118       27.238122   0.000000
  119       27.357204   0.000000
  120       27.590580   0.000000
  121       27.802434   0.000000
  122       28.449460   0.000000
  123       28.829640   0.000000
  124       29.168304   0.000000
  125       29.296888   0.000000
  126       29.537528   0.000000
  127       29.691171   0.000000
  128       30.428931   0.000000
 
  0.4256528E+00  0.5067853E+00 -0.1846900E-01  0.1851852E-01
    1      -62.999181   1.000000
    2      -62.997302   1.000000
    3      -62.996418   1.000000
    4      -62.994536   1.000000
    5      -36.990887   1.000000
    6      -36.988797   1.000000
    7      -36.988556   1.000000
    8      -36.985332   1.000000
    9      -36.944900   1.000000
   10      -36.934182   1.000000
   11      -36.912312   1.000000
   12      -36.909705   1.000000
   13      -36.845933   1.000000
   14      -36.845494   1.000000
   15      -36.823720   1.000000
   16      -36.817010   1.000000
   17      -15.708591   1.000000
   18      -15.572985   1.000000
   19      -15.443031   1.000000
   20      -15.300094   1.000000
   21      -15.158533   1.000000
   22      -15.157881   1.000000
   23      -14.736434   1.000000
   24      -14.700734   1.000000
   25      -14.682257   1.000000
   26      -14.645391   1.000000
   27       -3.852412   1.000000
   28       -3.712692   1.000000
   29       -3.454379   1.000000
   30       -3.279261   1.000000
   31       -3.201581   1.000000
   32       -3.037337   1.000000
   33       -3.003819   1.000000
   34       -2.734549   1.000000
   35       -2.718736   1.000000
   36       -2.638964   1.000000
   37       -2.465621   1.000000
   38       -2.293234   1.000000
   39       -2.281923   1.000000
   40       -2.057053   1.000000
   41       -1.915763   1.000000
   42       -1.902437   1.000000
   43       -1.686817   1.000000
   44       -1.495874   1.000000
   45       -1.441071   1.000000
   46       -0.967417   1.000000
   47       -0.239608   1.000000
   48       -0.168288   1.000000
   49       -0.162468   1.000000
   50        0.066922   1.000000
   51        0.869892   1.000000
   52        0.902454   1.000000
   53        0.929144   1.000000
   54        0.929891   1.000000
   55        1.120072   1.000000
   56        1.142113   1.000000
   57        3.277191   0.000000
   58        3.390507   0.000000
   59        4.107106   0.000000
   60        4.145885   0.000000
   61        4.651920   0.000000
   62        4.698863   0.000000
   63        4.714372   0.000000
   64        4.771824   0.000000
   65        5.043677   0.000000
   66        5.100970   0.000000
   67        5.110032   0.000000
   68        5.147125   0.000000
   69        5.964272   0.000000
   70        6.492559   0.000000
   71        7.033910   0.000000
   72        7.327323   0.000000
   73        7.556499   0.000000
   74        7.576514   0.000000
   75        7.617234   0.000000
   76        7.743075   0.000000
   77       11.751852   0.000000
   78       11.811150   0.000000
   79       13.710818   0.000000
   80       13.926429   0.000000
   81       14.467877   0.000000
   82       14.727681   0.000000
   83       14.933160   0.000000
   84       15.163625   0.000000
   85       15.722529   0.000000
   86       15.859033   0.000000
   87       15.928823   0.000000
   88       16.013367   0.000000
   89       16.382403   0.000000
   90       16.719281   0.000000
   91       16.833401   0.000000
   92       17.083889   0.000000
   93       17.214196   0.000000
   94       17.688603   0.000000
   95       18.084147   0.000000
   96       18.182578   0.000000
   97       19.603349   0.000000
   98       19.819777   0.000000
   99       19.902236   0.000000
  100       20.419464   0.000000
  101       21.079643   0.000000
  102       21.131027   0.000000
  103       21.781890   0.000000
  104       22.098765   0.000000
  105       22.752338   0.000000
  106       23.368773   0.000000
  107       23.740579   0.000000
  108       24.011271   0.000000
  109       24.359657   0.000000
  110       24.552045   0.000000
  111       24.943803   0.000000
  112       25.168313   0.000000
  113       25.434925   0.000000
  114       25.566586   0.000000
  115       26.390847   0.000000
  116       26.475305   0.000000
  117       27.164217   0.000000
  118       27.241221   0.000000
  119       27.356897   0.000000
  120       27.592097   0.000000
  121       27.802230   0.000000
  122       28.449464   0.000000
  123       28.831876   0.000000
  124       29.168065   0.000000
  125       29.298490   0.000000
  126       29.536781   0.000000
  127       29.687329   0.000000
  128       30.429376   0.000000
 
  0.4256528E+00  0.5067853E+00  0.0000000E+00  0.1851852E-01
    1      -62.999182   1.000000
    2      -62.997297   1.000000
    3      -62.996423   1.000000
    4      -62.994534   1.000000
    5      -36.990888   1.000000
    6      -36.988781   1.000000
    7      -36.988576   1.000000
    8      -36.985331   1.000000
    9      -36.944911   1.000000
   10      -36.934175   1.000000
   11      -36.912308   1.000000
   12      -36.909699   1.000000
   13      -36.845941   1.000000
   14      -36.845498   1.000000
   15      -36.823722   1.000000
   16      -36.817002   1.000000
   17      -15.708677   1.000000
   18      -15.572740   1.000000
   19      -15.443261   1.000000
   20      -15.300015   1.000000
   21      -15.158534   1.000000
   22      -15.157891   1.000000
   23      -14.736454   1.000000
   24      -14.700633   1.000000
   25      -14.682344   1.000000
   26      -14.645385   1.000000
   27       -3.852491   1.000000
   28       -3.712495   1.000000
   29       -3.454652   1.000000
   30       -3.279207   1.000000
   31       -3.201558   1.000000
   32       -3.036812   1.000000
   33       -3.004139   1.000000
   34       -2.731775   1.000000
   35       -2.721186   1.000000
   36       -2.638985   1.000000
   37       -2.466199   1.000000
   38       -2.293198   1.000000
   39       -2.282067   1.000000
   40       -2.056131   1.000000
   41       -1.917061   1.000000
   42       -1.902015   1.000000
   43       -1.686462   1.000000
   44       -1.496191   1.000000
   45       -1.441621   1.000000
   46       -0.967558   1.000000
   47       -0.227141   1.000000
   48       -0.175534   1.000000
   49       -0.165597   1.000000
   50        0.065435   1.000000
   51        0.871325   1.000000
   52        0.905805   1.000000
   53        0.925952   1.000000
   54        0.928492   1.000000
   55        1.120105   1.000000
   56        1.142144   1.000000
   57        3.276969   0.000000
   58        3.390436   0.000000
   59        4.107212   0.000000
   60        4.146008   0.000000
   61        4.651921   0.000000
   62        4.699015   0.000000
   63        4.714260   0.000000
   64        4.771648   0.000000
   65        5.043808   0.000000
   66        5.100862   0.000000
   67        5.110990   0.000000
   68        5.146523   0.000000
   69        5.963847   0.000000
   70        6.493281   0.000000
   71        7.033197   0.000000
   72        7.327279   0.000000
   73        7.556722   0.000000
   74        7.577216   0.000000
   75        7.616561   0.000000
   76        7.743107   0.000000
   77       11.751783   0.000000
   78       11.811176   0.000000
   79       13.710699   0.000000
   80       13.926732   0.000000
   81       14.467716   0.000000
   82       14.726904   0.000000
   83       14.934455   0.000000
   84       15.162123   0.000000
   85       15.723664   0.000000
   86       15.859198   0.000000
   87       15.929108   0.000000
   88       16.013518   0.000000
   89       16.382531   0.000000
   90       16.723840   0.000000
   91       16.827819   0.000000
   92       17.083033   0.000000
   93       17.214456   0.000000
   94       17.687889   0.000000
   95       18.101973   0.000000
   96       18.164869   0.000000
   97       19.617107   0.000000
   98       19.805696   0.000000
   99       19.903421   0.000000
  100       20.416894   0.000000
  101       21.081923   0.000000
  102       21.133456   0.000000
  103       21.779506   0.000000
  104       22.096584   0.000000
  105       22.754223   0.000000
  106       23.373189   0.000000
  107       23.737237   0.000000
  108       24.018827   0.000000
  109       24.359524   0.000000
  110       24.542743   0.000000
  111       24.946996   0.000000
  112       25.172814   0.000000
  113       25.435131   0.000000
  114       25.558948   0.000000
  115       26.402698   0.000000
  116       26.460973   0.000000
  117       27.164593   0.000000
  118       27.240677   0.000000
  119       27.357389   0.000000
  120       27.591193   0.000000
  121       27.802040   0.000000
  122       28.450812   0.000000
  123       28.831913   0.000000
  124       29.170448   0.000000
  125       29.299795   0.000000
  126       29.542282   0.000000
  127       29.686756   0.000000
  128       30.435561   0.000000
 
  0.4256528E+00  0.5067853E+00  0.1846900E-01  0.1851852E-01
    1      -62.999181   1.000000
    2      -62.997302   1.000000
    3      -62.996418   1.000000
    4      -62.994536   1.000000
    5      -36.990887   1.000000
    6      -36.988797   1.000000
    7      -36.988556   1.000000
    8      -36.985332   1.000000
    9      -36.944900   1.000000
   10      -36.934182   1.000000
   11      -36.912312   1.000000
   12      -36.909705   1.000000
   13      -36.845933   1.000000
   14      -36.845494   1.000000
   15      -36.823720   1.000000
   16      -36.817010   1.000000
   17      -15.708591   1.000000
   18      -15.572985   1.000000
   19      -15.443031   1.000000
   20      -15.300094   1.000000
   21      -15.158533   1.000000
   22      -15.157881   1.000000
   23      -14.736434   1.000000
   24      -14.700734   1.000000
   25      -14.682257   1.000000
   26      -14.645391   1.000000
   27       -3.852412   1.000000
   28       -3.712692   1.000000
   29       -3.454379   1.000000
   30       -3.279261   1.000000
   31       -3.201581   1.000000
   32       -3.037337   1.000000
   33       -3.003819   1.000000
   34       -2.734549   1.000000
   35       -2.718736   1.000000
   36       -2.638964   1.000000
   37       -2.465621   1.000000
   38       -2.293234   1.000000
   39       -2.281923   1.000000
   40       -2.057053   1.000000
   41       -1.915763   1.000000
   42       -1.902437   1.000000
   43       -1.686817   1.000000
   44       -1.495874   1.000000
   45       -1.441071   1.000000
   46       -0.967417   1.000000
   47       -0.239608   1.000000
   48       -0.168288   1.000000
   49       -0.162468   1.000000
   50        0.066922   1.000000
   51        0.869892   1.000000
   52        0.902454   1.000000
   53        0.929144   1.000000
   54        0.929891   1.000000
   55        1.120072   1.000000
   56        1.142113   1.000000
   57        3.277191   0.000000
   58        3.390507   0.000000
   59        4.107106   0.000000
   60        4.145885   0.000000
   61        4.651920   0.000000
   62        4.698863   0.000000
   63        4.714372   0.000000
   64        4.771824   0.000000
   65        5.043677   0.000000
   66        5.100970   0.000000
   67        5.110032   0.000000
   68        5.147125   0.000000
   69        5.964272   0.000000
   70        6.492559   0.000000
   71        7.033910   0.000000
   72        7.327323   0.000000
   73        7.556499   0.000000
   74        7.576514   0.000000
   75        7.617234   0.000000
   76        7.743075   0.000000
   77       11.751852   0.000000
   78       11.811150   0.000000
   79       13.710818   0.000000
   80       13.926429   0.000000
   81       14.467877   0.000000
   82       14.727681   0.000000
   83       14.933160   0.000000
   84       15.163625   0.000000
   85       15.722529   0.000000
   86       15.859033   0.000000
   87       15.928823   0.000000
   88       16.013367   0.000000
   89       16.382403   0.000000
   90       16.719281   0.000000
   91       16.833401   0.000000
   92       17.083889   0.000000
   93       17.214196   0.000000
   94       17.688603   0.000000
   95       18.084147   0.000000
   96       18.182578   0.000000
   97       19.603349   0.000000
   98       19.819777   0.000000
   99       19.902236   0.000000
  100       20.419464   0.000000
  101       21.079643   0.000000
  102       21.131027   0.000000
  103       21.781890   0.000000
  104       22.098765   0.000000
  105       22.752338   0.000000
  106       23.368773   0.000000
  107       23.740579   0.000000
  108       24.011271   0.000000
  109       24.359657   0.000000
  110       24.552045   0.000000
  111       24.943803   0.000000
  112       25.168313   0.000000
  113       25.434925   0.000000
  114       25.566586   0.000000
  115       26.390847   0.000000
  116       26.475305   0.000000
  117       27.164217   0.000000
  118       27.241221   0.000000
  119       27.356897   0.000000
  120       27.592097   0.000000
  121       27.802230   0.000000
  122       28.449464   0.000000
  123       28.831876   0.000000
  124       29.168065   0.000000
  125       29.298490   0.000000
  126       29.536781   0.000000
  127       29.687329   0.000000
  128       30.429492   0.000000
