       N       E                     dE             d eps       ncg     rms          rms(c)
DAV:   1     0.143727929840E+04    0.14373E+04   -0.66843E+04 96016   0.135E+03
DAV:   2    -0.527203952091E+02   -0.14900E+04   -0.13981E+04102688   0.417E+02
DAV:   3    -0.159884801158E+03   -0.10716E+03   -0.10583E+03111728   0.126E+02
DAV:   4    -0.161114890439E+03   -0.12301E+01   -0.12294E+01105968   0.148E+01
DAV:   5    -0.161123463896E+03   -0.85735E-02   -0.85733E-02109744   0.128E+00    0.931E+01
DAV:   6    -0.149483208346E+03    0.11640E+02   -0.30325E+02116096   0.818E+01    0.678E+01
DAV:   7    -0.143755245643E+03    0.57280E+01   -0.31918E+02104672   0.107E+02    0.565E+01
DAV:   8    -0.125817247014E+03    0.17938E+02   -0.15987E+01100304   0.226E+01    0.235E+01
DAV:   9    -0.118251414470E+03    0.75658E+01   -0.46849E+00121968   0.154E+01    0.741E+00
DAV:  10    -0.117980446652E+03    0.27097E+00   -0.10197E+00107888   0.383E+00    0.674E+00
DAV:  11    -0.117605692193E+03    0.37475E+00   -0.15996E-01108624   0.283E+00    0.418E+00
DAV:  12    -0.117750000046E+03   -0.14431E+00   -0.88409E-01103744   0.375E+00    0.639E+00
DAV:  13    -0.117477071946E+03    0.27293E+00   -0.31695E-01110688   0.361E+00    0.555E+00
DAV:  14    -0.117557915997E+03   -0.80844E-01   -0.34386E-01119232   0.289E+00    0.569E+00
DAV:  15    -0.117445354962E+03    0.11256E+00   -0.17114E-01104384   0.238E+00    0.179E+00
DAV:  16    -0.117427552066E+03    0.17803E-01   -0.21294E-02110992   0.893E-01    0.411E-01
DAV:  17    -0.117426944741E+03    0.60733E-03   -0.15719E-03102352   0.183E-01    0.410E-01
DAV:  18    -0.117426456013E+03    0.48873E-03   -0.20934E-04113584   0.832E-02    0.395E-01
DAV:  19    -0.117426033448E+03    0.42257E-03   -0.28680E-04108416   0.105E-01    0.188E-01
DAV:  20    -0.117425982818E+03    0.50629E-04   -0.49859E-05107824   0.345E-02    0.936E-02
DAV:  21    -0.117425955734E+03    0.27084E-04   -0.10212E-05109680   0.190E-02    0.667E-02
DAV:  22    -0.117425939045E+03    0.16689E-04   -0.95035E-06107296   0.191E-02    0.383E-02
DAV:  23    -0.117425933698E+03    0.53463E-05   -0.66990E-06108704   0.155E-02    0.891E-03
DAV:  24    -0.117425933462E+03    0.23588E-06   -0.76614E-07 64208   0.404E-03
   1 F= -.11742593E+03 E0= -.11742593E+03  d E =-.264324E-16
 imaginary and real dielectric function
