generated by phonopy
   1.0
     7.1034996200000000    0.0000000000000000    0.0000000000000004
    -0.0000000000000006    8.5267155799999994    0.0000000000000006
     0.0000000000000000    0.0000000000000000   23.2088342200000000
O V
  80   32
Direct
  0.0000000000000000  0.4968214850000000  0.0000000000000000
  0.4999999999999999  0.4968214850000000  0.0000000000000000
  0.0000000000000000  0.9968214850000000  0.0000000000000000
  0.5000000000000000  0.9968214850000000  0.0000000000000000
  0.0000000000000000  0.4968214850000000  0.5000000000000000
  0.4999999999999999  0.4968214850000000  0.5000000000000000
  0.0000000000000000  0.9968214850000000  0.5000000000000000
  0.5000000000000000  0.9968214850000000  0.4999999999999999
  0.9990989330194878  0.2560977930194878  0.0733419999999995
  0.4999999999999999  0.2569988600000000  0.0733419999999995
  0.0000000000000000  0.7569988599999999  0.0733419999999995
  0.4999999999999999  0.7569988599999999  0.0733419999999995
  0.0000000000000000  0.2569988600000000  0.5733419999999995
  0.4999999999999999  0.2569988600000000  0.5733419999999995
  0.0000000000000000  0.7569988599999999  0.5733419999999995
  0.4999999999999999  0.7569988599999999  0.5733419999999995
  0.2500000000000000  0.4970787800000001  0.0909499950000000
  0.7499999999999999  0.4970787800000001  0.0909499950000000
  0.2500000000000000  0.9970787800000002  0.0909499950000000
  0.7499999999999999  0.9970787800000002  0.0909499950000000
  0.2500000000000000  0.4970787800000001  0.5909499950000000
  0.7499999999999999  0.4970787800000001  0.5909499950000000
  0.2500000000000000  0.9970787800000002  0.5909499950000000
  0.7499999999999999  0.9970787800000002  0.5909499950000000
  0.0000000000000000  0.0029212200000000  0.1590500049999995
  0.4999999999999999  0.0029212200000000  0.1590500049999995
  0.0000000000000000  0.5029212199999999  0.1590500049999995
  0.4999999999999999  0.5029212199999999  0.1590500049999995
  0.0000000000000000  0.0029212200000000  0.6590500049999994
  0.4999999999999999  0.0029212200000000  0.6590500049999994
  0.0000000000000000  0.5029212199999999  0.6590500049999994
  0.4999999999999999  0.5029212199999999  0.6590500049999994
  0.2500000000000000  0.2430011400000000  0.1766579999999995
  0.7499999999999999  0.2430011400000000  0.1766579999999995
  0.2500000000000000  0.7430011400000001  0.1766579999999995
  0.7499999999999999  0.7430011400000001  0.1766579999999995
  0.2500000000000000  0.2430011400000000  0.6766579999999995
  0.7499999999999999  0.2430011400000000  0.6766579999999995
  0.2500000000000000  0.7430011400000001  0.6766579999999995
  0.7499999999999999  0.7430011400000001  0.6766579999999995
  0.2500000000000000  0.0031785149999995  0.2500000000000000
  0.7499999999999999  0.0031785149999995  0.2500000000000000
  0.2500000000000000  0.5031785149999995  0.2500000000000000
  0.7499999999999999  0.5031785149999995  0.2500000000000000
  0.2500000000000000  0.0031785149999995  0.7500000000000000
  0.7499999999999999  0.0031785149999995  0.7500000000000000
  0.2500000000000000  0.5031785149999995  0.7500000000000000
  0.7499999999999999  0.5031785149999995  0.7500000000000000
  0.2500000000000000  0.2430011400000000  0.3233419999999995
  0.7499999999999999  0.2430011400000000  0.3233419999999995
  0.2500000000000000  0.7430011400000001  0.3233419999999995
  0.7499999999999999  0.7430011400000001  0.3233419999999995
  0.2500000000000000  0.2430011400000000  0.8233419999999996
  0.7499999999999999  0.2430011400000000  0.8233419999999996
  0.2500000000000000  0.7430011400000001  0.8233419999999996
  0.7499999999999999  0.7430011400000001  0.8233419999999996
  0.0000000000000000  0.0029212200000000  0.3409499950000000
  0.4999999999999999  0.0029212200000000  0.3409499950000000
  0.0000000000000000  0.5029212199999999  0.3409499950000000
  0.4999999999999999  0.5029212199999999  0.3409499950000000
  0.0000000000000000  0.0029212200000000  0.8409499950000000
  0.4999999999999999  0.0029212200000000  0.8409499950000000
  0.0000000000000000  0.5029212199999999  0.8409499950000000
  0.4999999999999999  0.5029212199999999  0.8409499950000000
  0.2500000000000000  0.4970787800000001  0.4090500050000000
  0.7499999999999999  0.4970787800000001  0.4090500050000000
  0.2500000000000000  0.9970787800000002  0.4090500050000000
  0.7499999999999999  0.9970787800000002  0.4090500050000000
  0.2500000000000000  0.4970787800000001  0.9090500049999999
  0.7499999999999999  0.4970787800000001  0.9090500049999999
  0.2500000000000000  0.9970787800000002  0.9090500049999999
  0.7499999999999999  0.9970787800000002  0.9090500050000001
  0.0000000000000000  0.2569988600000000  0.4266580000000005
  0.4999999999999999  0.2569988600000000  0.4266580000000005
  0.0000000000000000  0.7569988599999999  0.4266580000000005
  0.4999999999999999  0.7569988599999999  0.4266580000000006
  0.0000000000000000  0.2569988600000000  0.9266580000000005
  0.4999999999999999  0.2569988600000000  0.9266580000000005
  0.0000000000000000  0.7569988599999999  0.9266580000000005
  0.4999999999999999  0.7569988599999999  0.9266580000000005
  0.0000000000000000  0.4442935200000000  0.0741498250000000
  0.4999999999999999  0.4442935200000000  0.0741498250000000
  0.0000000000000000  0.9442935200000001  0.0741498250000000
  0.4999999999999999  0.9442935200000001  0.0741498250000000
  0.0000000000000000  0.4442935200000000  0.5741498250000000
  0.4999999999999999  0.4442935200000000  0.5741498250000000
  0.0000000000000000  0.9442935200000001  0.5741498250000000
  0.4999999999999999  0.9442935200000001  0.5741498250000000
  0.2500000000000000  0.0557064800000000  0.1758501749999996
  0.7499999999999999  0.0557064800000000  0.1758501749999996
  0.2500000000000000  0.5557064800000000  0.1758501749999995
  0.7499999999999999  0.5557064800000000  0.1758501749999996
  0.2500000000000000  0.0557064800000000  0.6758501749999996
  0.7499999999999999  0.0557064800000000  0.6758501749999996
  0.2500000000000000  0.5557064800000000  0.6758501749999996
  0.7499999999999999  0.5557064800000000  0.6758501749999996
  0.2500000000000000  0.0557064800000000  0.3241498250000000
  0.7499999999999999  0.0557064800000000  0.3241498250000000
  0.2500000000000000  0.5557064800000000  0.3241498250000000
  0.7499999999999999  0.5557064800000000  0.3241498250000000
  0.2500000000000000  0.0557064800000000  0.8241498250000000
  0.7499999999999999  0.0557064800000000  0.8241498250000000
  0.2500000000000000  0.5557064800000000  0.8241498250000000
  0.7499999999999999  0.5557064800000000  0.8241498250000000
  0.0000000000000000  0.4442935200000000  0.4258501750000000
  0.4999999999999999  0.4442935200000000  0.4258501750000000
  0.0000000000000000  0.9442935200000001  0.4258501750000000
  0.4999999999999999  0.9442935200000001  0.4258501750000000
  0.0000000000000000  0.4442935200000000  0.9258501750000000
  0.4999999999999999  0.4442935200000000  0.9258501750000000
  0.0000000000000000  0.9442935200000001  0.9258501750000000
  0.4999999999999999  0.9442935200000001  0.9258501750000000
