V2O5 primitive cell reordered as O V for QTrans OpenMX workflow
1.0
   3.5517498100000000    0.0000000000000000    0.0000000000000002
  -0.0000000000000003    4.2633577899999997    0.0000000000000003
   0.0000000000000000    0.0000000000000000   11.6044171100000000
O V
10 4
Direct
   0.0000000000000000    0.9936429700000000    0.0000000000000000
   0.0000000000000000    0.5139977200000000    0.1466839999999990
   0.5000000000000000    0.9941575600000000    0.1818999900000000
   0.0000000000000000    0.0058424400000000    0.3181000099999990
   0.5000000000000000    0.4860022800000000    0.3533159999999990
   0.5000000000000000    0.0063570299999990    0.5000000000000000
   0.5000000000000000    0.4860022800000000    0.6466839999999990
   0.0000000000000000    0.0058424400000000    0.6818999900000000
   0.5000000000000000    0.9941575600000000    0.8181000100000000
   0.0000000000000000    0.5139977200000000    0.8533160000000011
   0.0000000000000000    0.8885870400000000    0.1482996500000000
   0.5000000000000000    0.1114129600000000    0.3517003499999991
   0.5000000000000000    0.1114129600000000    0.6482996500000000
   0.0000000000000000    0.8885870400000000    0.8517003500000000
