
     Program PWSCF v.7.3.1 starts on  4Jun2026 at  1:10:38 
        Git branch: HEAD
        Last git commit: 7fd60c9bc9fe7a7d1fe6f1049f4afba0eab9aeef-dirty
        Last git commit date: Thu Feb 29 10:18:05 2024 +0000
        Last git commit subject: Merge branch 'master_qe_7.3.1' into 'master'

     This program is part of the open-source Quantum ESPRESSO suite
     for quantum simulation of materials; please cite
         "P. Giannozzi et al., J. Phys.:Condens. Matter 21 395502 (2009);
         "P. Giannozzi et al., J. Phys.:Condens. Matter 29 465901 (2017);
         "P. Giannozzi et al., J. Chem. Phys. 152 154105 (2020);
          URL http://www.quantum-espresso.org", 
     in publications or presentations arising from this work. More details at
     http://www.quantum-espresso.org/quote

     Parallel version (MPI & OpenMP), running on      32 processor cores
     Number of MPI processes:                32
     Threads/MPI process:                     1

     MPI processes distributed on     1 nodes
     91843 MiB available memory on the printing compute node when the environment starts
 
     Reading input from scf.in

     Current dimensions of program PWSCF are:
     Max number of different atomic species (ntypx) = 10
     Max number of k-points (npk) =  40000
     Max angular momentum in pseudopotentials (lmaxx) =  4
     Message from routine setup:
     using ibrav=0 with symmetry is DISCOURAGED, use correct ibrav instead
 
     R & G space division:  proc/nbgrp/npool/nimage =      32
     Subspace diagonalization in iterative solution of the eigenvalue problem:
     a serial algorithm will be used

 
     Parallelization info
     --------------------
     sticks:   dense  smooth     PW     G-vecs:    dense   smooth      PW
     Min          53      27      7                 4995     1765     259
     Max          54      28      8                 5012     1773     270
     Sum        1721     867    239               160191    56597    8443
 
     Using Slab Decomposition
 


     bravais-lattice index     =            0
     lattice parameter (alat)  =       6.7118  a.u.
     unit-cell volume          =    1185.8072 (a.u.)^3
     number of atoms/cell      =           14
     number of atomic types    =            2
     number of electrons       =       112.00
     number of Kohn-Sham states=           96
     kinetic-energy cutoff     =      50.0000  Ry
     charge density cutoff     =     400.0000  Ry
     scf convergence threshold =      1.0E-10
     mixing beta               =       0.3000
     number of iterations used =            8  plain     mixing
     Exchange-correlation=  SLA  PW   PBE  PBE
                           (   1   4   3   4   0   0   0)

     celldm(1)=   6.711834  celldm(2)=   0.000000  celldm(3)=   0.000000
     celldm(4)=   0.000000  celldm(5)=   0.000000  celldm(6)=   0.000000

     crystal axes: (cart. coord. in units of alat)
               a(1) = (   1.000000   0.000000   0.000000 )  
               a(2) = (  -0.000000   1.200354   0.000000 )  
               a(3) = (   0.000000   0.000000   3.267239 )  

     reciprocal axes: (cart. coord. in units 2 pi/alat)
               b(1) = (  1.000000  0.000000  0.000000 )  
               b(2) = (  0.000000  0.833087  0.000000 )  
               b(3) = ( -0.000000 -0.000000  0.306069 )  


     PseudoPot. # 1 for O  read from file:
     /public/home/chris_55/apprepo/wannier90/3.1.0-intelmpi2017/pseudo/O.pbe-van_ak.UPF
     MD5 check sum: 78c19812648e8988a0fe644b0f25305e
     Pseudo is Ultrasoft, Zval =  6.0
     Generated by new atomic code, or converted to UPF format
     Using radial grid of  737 points,  4 beta functions with: 
                l(1) =   0
                l(2) =   0
                l(3) =   1
                l(4) =   1
     Q(r) pseudized with  8 coefficients,  rinner =    0.800   0.800   0.800


     PseudoPot. # 2 for V  read from file:
     /public/home/chris_55/apprepo/wannier90/3.1.0-intelmpi2017/pseudo/V.pbe-sp-van.UPF
     MD5 check sum: faa3d904276cfa7a55899deb573b58ef
     Pseudo is Ultrasoft, Zval = 13.0
     Generated by new atomic code, or converted to UPF format
     Using radial grid of  853 points,  6 beta functions with: 
                l(1) =   0
                l(2) =   0
                l(3) =   1
                l(4) =   1
                l(5) =   2
                l(6) =   2
     Q(r) pseudized with  8 coefficients,  rinner =    1.200   1.200   1.200
                                                       1.200   1.200

     atomic species   valence    mass     pseudopotential
     O                 6.00    15.99940     O ( 1.00)
     V                13.00    50.94150     V ( 1.00)

      8 Sym. Ops., with inversion, found ( 4 have fractional translation)



   Cartesian axes

     site n.     atom                  positions (alat units)
         1        O      tau(   1) = (  -0.0000000   1.1927235   0.0000000  )
         2        O      tau(   2) = (  -0.0000000   0.6169793   0.4792518  )
         3        O      tau(   3) = (   0.5000000   1.1933412   0.5943108  )
         4        O      tau(   4) = (  -0.0000000   0.0070130   1.0393089  )
         5        O      tau(   5) = (   0.5000000   0.5833749   1.1543680  )
         6        O      tau(   6) = (   0.5000000   0.0076307   1.6336197  )
         7        O      tau(   7) = (   0.5000000   0.5833749   2.1128715  )
         8        O      tau(   8) = (  -0.0000000   0.0070130   2.2279306  )
         9        O      tau(   9) = (   0.5000000   1.1933412   2.6729286  )
        10        O      tau(  10) = (  -0.0000000   0.6169793   2.7879877  )
        11        V      tau(  11) = (  -0.0000000   1.0666192   0.4845305  )
        12        V      tau(  12) = (   0.5000000   0.1337350   1.1490893  )
        13        V      tau(  13) = (   0.5000000   0.1337350   2.1181502  )
        14        V      tau(  14) = (  -0.0000000   1.0666192   2.7827090  )

     number of k points=     8
                       cart. coord. in units 2pi/alat
        k(    1) = (   0.0000000   0.0000000   0.0000000), wk =   0.1111111
        k(    2) = (   0.0000000   0.0000000  -0.1530344), wk =   0.1111111
        k(    3) = (   0.0000000   0.2776958   0.0000000), wk =   0.2222222
        k(    4) = (   0.0000000   0.2776958  -0.1530344), wk =   0.2222222
        k(    5) = (   0.3333333   0.0000000   0.0000000), wk =   0.2222222
        k(    6) = (   0.3333333   0.0000000  -0.1530344), wk =   0.2222222
        k(    7) = (   0.3333333   0.2776958   0.0000000), wk =   0.4444444
        k(    8) = (   0.3333333   0.2776958  -0.1530344), wk =   0.4444444

     Dense  grid:   160191 G-vectors     FFT dimensions: (  48,  54, 144)

     Smooth grid:    56597 G-vectors     FFT dimensions: (  32,  40, 100)

     Estimated max dynamical RAM per process >      24.73 MB

     Estimated total dynamical RAM >     791.31 MB

     Initial potential from superposition of free atoms

     starting charge     111.9951, renormalised to     112.0000
     Starting wfcs are   92 randomized atomic wfcs +    4 random wfcs

     total cpu time spent up to now is        2.0 secs

     per-process dynamical memory:   208.1 Mb

     Self-consistent Calculation

     iteration #  1     ecut=    50.00 Ry     beta= 0.30
     Davidson diagonalization with overlap
     ethr =  1.00E-02,  avg # of iterations =  6.6

     total cpu time spent up to now is        5.4 secs

     total energy              =    -894.51557745 Ry
     estimated scf accuracy    <       8.13282842 Ry

     iteration #  2     ecut=    50.00 Ry     beta= 0.30
     Davidson diagonalization with overlap
     ethr =  7.26E-03,  avg # of iterations =  2.0

     total cpu time spent up to now is        7.4 secs

     total energy              =    -894.34208690 Ry
     estimated scf accuracy    <      16.33670491 Ry

     iteration #  3     ecut=    50.00 Ry     beta= 0.30
     Davidson diagonalization with overlap
     ethr =  7.26E-03,  avg # of iterations =  1.0

     total cpu time spent up to now is        9.0 secs

     total energy              =    -896.63541013 Ry
     estimated scf accuracy    <       1.32466498 Ry

     iteration #  4     ecut=    50.00 Ry     beta= 0.30
     Davidson diagonalization with overlap
     ethr =  1.18E-03,  avg # of iterations =  1.2

     total cpu time spent up to now is       10.7 secs

     total energy              =    -896.65224683 Ry
     estimated scf accuracy    <       0.19823233 Ry

     iteration #  5     ecut=    50.00 Ry     beta= 0.30
     Davidson diagonalization with overlap
     ethr =  1.77E-04,  avg # of iterations =  3.0

     total cpu time spent up to now is       12.7 secs

     total energy              =    -896.67657849 Ry
     estimated scf accuracy    <       0.02392018 Ry

     iteration #  6     ecut=    50.00 Ry     beta= 0.30
     Davidson diagonalization with overlap
     c_bands:  3 eigenvalues not converged
     ethr =  2.14E-05,  avg # of iterations =  9.0

     total cpu time spent up to now is       15.5 secs

     total energy              =    -896.67827018 Ry
     estimated scf accuracy    <       0.00162731 Ry

     iteration #  7     ecut=    50.00 Ry     beta= 0.30
     Davidson diagonalization with overlap
     ethr =  1.45E-06,  avg # of iterations =  6.2

     total cpu time spent up to now is       18.1 secs

     total energy              =    -896.67845242 Ry
     estimated scf accuracy    <       0.00038207 Ry

     iteration #  8     ecut=    50.00 Ry     beta= 0.30
     Davidson diagonalization with overlap
     ethr =  3.41E-07,  avg # of iterations =  1.0

     total cpu time spent up to now is       19.8 secs

     total energy              =    -896.67846458 Ry
     estimated scf accuracy    <       0.00007282 Ry

     iteration #  9     ecut=    50.00 Ry     beta= 0.30
     Davidson diagonalization with overlap
     ethr =  6.50E-08,  avg # of iterations =  2.0

     total cpu time spent up to now is       21.8 secs

     total energy              =    -896.67847963 Ry
     estimated scf accuracy    <       0.00003105 Ry

     iteration # 10     ecut=    50.00 Ry     beta= 0.30
     Davidson diagonalization with overlap
     ethr =  2.77E-08,  avg # of iterations =  1.0

     total cpu time spent up to now is       23.7 secs

     total energy              =    -896.67848782 Ry
     estimated scf accuracy    <       0.00001489 Ry

     iteration # 11     ecut=    50.00 Ry     beta= 0.30
     Davidson diagonalization with overlap
     ethr =  1.33E-08,  avg # of iterations =  1.0

     total cpu time spent up to now is       25.4 secs

     total energy              =    -896.67848940 Ry
     estimated scf accuracy    <       0.00000191 Ry

     iteration # 12     ecut=    50.00 Ry     beta= 0.30
     Davidson diagonalization with overlap
     ethr =  1.70E-09,  avg # of iterations =  1.0

     total cpu time spent up to now is       27.0 secs

     total energy              =    -896.67849003 Ry
     estimated scf accuracy    <       0.00000007 Ry

     iteration # 13     ecut=    50.00 Ry     beta= 0.30
     Davidson diagonalization with overlap
     ethr =  6.42E-11,  avg # of iterations =  2.0

     total cpu time spent up to now is       29.0 secs

     total energy              =    -896.67849026 Ry
     estimated scf accuracy    <          4.1E-09 Ry

     iteration # 14     ecut=    50.00 Ry     beta= 0.30
     Davidson diagonalization with overlap
     ethr =  3.65E-12,  avg # of iterations =  2.0

     total cpu time spent up to now is       31.3 secs

     total energy              =    -896.67849037 Ry
     estimated scf accuracy    <          6.2E-10 Ry

     iteration # 15     ecut=    50.00 Ry     beta= 0.30
     Davidson diagonalization with overlap
     ethr =  5.55E-13,  avg # of iterations =  2.0

     total cpu time spent up to now is       33.3 secs

     End of self-consistent calculation

          k = 0.0000 0.0000 0.0000 (  7081 PWs)   bands (ev):

   -59.6050 -59.6032 -59.5930 -59.5912 -33.5943 -33.5914 -33.5861 -33.5804
   -33.5354 -33.4845 -33.4492 -33.4276 -33.4252 -33.4004 -33.3897 -33.3873
   -13.2250 -13.0932 -12.1093 -11.9909 -11.9004 -11.8285 -11.4649 -11.4447
   -11.3136 -11.2652  -0.0157   0.0053   0.0233   0.1693   0.3256   0.9052
     1.5375   1.5961   1.6970   1.8500   2.1948   2.2206   2.3464   2.4558
     2.5280   2.5554   2.5627   2.5711   2.6923   2.7242   2.7484   2.9104
     3.0501   3.4013   3.4287   3.4600   3.5206   3.6993   3.8135   3.8342
     6.2308   6.3998   7.6472   7.6604   7.7295   7.9008   8.0776   8.2617
     8.5972   8.8225   8.8714   9.0106   9.1414   9.2876   9.6354   9.7071
     9.9551  10.0277  10.3584  10.5244  12.1169  13.2561  14.3657  16.8573
    16.9970  18.8060  18.8757  19.5211  19.9819  20.0568  20.2514  20.4380
    20.5735  21.2127  21.3533  21.5136  21.8025  22.5650  22.8978  23.0098

          k = 0.0000 0.0000-0.1530 (  7086 PWs)   bands (ev):

   -59.6041 -59.6041 -59.5920 -59.5920 -33.5928 -33.5928 -33.5837 -33.5837
   -33.5161 -33.5161 -33.4265 -33.4265 -33.4182 -33.4182 -33.3884 -33.3884
   -13.1637 -13.1637 -12.0370 -12.0370 -11.8733 -11.8733 -11.4600 -11.4600
   -11.2839 -11.2839   0.0141   0.0141   0.0286   0.0286   0.6314   0.6314
     1.6463   1.6463   1.7603   1.7603   2.2071   2.2071   2.2970   2.2970
     2.5660   2.5660   2.6470   2.6470   2.7225   2.7225   2.7335   2.7335
     3.2380   3.2380   3.4152   3.4152   3.7066   3.7066   3.7949   3.7949
     6.3120   6.3120   7.6919   7.6919   7.8474   7.8474   8.0003   8.0003
     8.8403   8.8403   9.0823   9.0823   9.0908   9.0908   9.4737   9.4737
    10.2289  10.2289  10.3593  10.3593  12.5292  12.5292  15.4230  15.4230
    18.2450  18.2450  19.2160  19.2160  19.7334  19.7334  20.4361  20.4361
    21.1131  21.1131  21.5679  21.5679  21.9234  21.9234  22.9283  22.9283

          k = 0.0000 0.2777 0.0000 (  7094 PWs)   bands (ev):

   -59.6049 -59.6030 -59.5930 -59.5912 -33.5983 -33.5953 -33.5919 -33.5862
   -33.5349 -33.4840 -33.4491 -33.4273 -33.4249 -33.4003 -33.3896 -33.3872
   -13.1203 -13.0026 -12.0090 -11.9473 -11.8938 -11.8016 -11.4479 -11.4266
   -11.2328 -11.2150  -0.0534  -0.0506  -0.0328   0.1172   0.1359   0.3648
     0.6671   0.8212   0.8950   0.9963   1.4486   1.7826   1.8388   2.1578
     2.2276   2.4747   2.6114   2.7073   2.9406   2.9968   3.1529   3.2329
     3.4551   3.4807   3.5779   3.6706   3.6955   4.0590   4.0598   4.3091
     6.3696   6.5491   7.7443   7.8163   7.8438   8.0092   8.1418   8.5043
     8.5267   8.8905   8.9207   9.0483   9.1862   9.5960   9.8635  10.2232
    10.4613  10.7035  11.1335  11.1425  13.4653  14.0506  15.5792  16.3931
    16.7085  17.6276  17.6467  18.5255  19.3445  19.8840  20.2129  20.3117
    20.6526  21.8646  21.9142  22.0726  22.4799  22.5511  22.5603  22.5975

          k = 0.0000 0.2777-0.1530 (  7096 PWs)   bands (ev):

   -59.6040 -59.6040 -59.5920 -59.5920 -33.5968 -33.5968 -33.5894 -33.5894
   -33.5157 -33.5157 -33.4261 -33.4261 -33.4181 -33.4181 -33.3883 -33.3883
   -13.0650 -13.0650 -11.9668 -11.9668 -11.8556 -11.8556 -11.4386 -11.4386
   -11.2226 -11.2226  -0.0418  -0.0418  -0.0157  -0.0157   0.3030   0.3030
     0.7308   0.7308   0.9470   0.9470   1.6665   1.6665   1.8091   1.8091
     2.5381   2.5381   2.7814   2.7814   2.8657   2.8657   3.0796   3.0796
     3.4692   3.4692   3.6550   3.6550   3.8567   3.8567   4.2224   4.2224
     6.4565   6.4565   7.7832   7.7832   8.0387   8.0387   8.0958   8.0958
     8.9006   8.9006   9.0645   9.0645   9.1226   9.1226  10.1511  10.1511
    10.6091  10.6091  11.1247  11.1247  13.6887  13.6887  16.2800  16.2800
    16.5955  16.5955  18.6475  18.6475  19.2920  19.2920  20.2333  20.2333
    21.2767  21.2767  22.0320  22.0320  22.5076  22.5076  22.5819  22.5819

          k = 0.3333 0.0000 0.0000 (  7071 PWs)   bands (ev):

   -59.6003 -59.5985 -59.5944 -59.5925 -33.5884 -33.5862 -33.5830 -33.5789
   -33.5329 -33.5056 -33.4940 -33.4840 -33.4299 -33.4255 -33.4104 -33.3989
   -12.6412 -12.4852 -12.0147 -11.8255 -11.8112 -11.7761 -11.4109 -11.3904
   -11.3832 -11.3115  -0.5654  -0.4980   0.2632   0.3281   0.4407   0.7932
     0.9023   1.3447   1.3634   1.6340   1.6652   1.7511   2.0897   2.1901
     2.1959   2.4311   2.4417   2.5387   2.6936   2.7227   2.7580   2.8525
     2.9261   3.3161   3.4728   3.5014   3.6335   3.7799   3.9402   4.0301
     6.5595   6.8049   7.4304   7.4587   7.5588   7.8647   7.8951   8.0266
     8.2137   8.2964   8.4355   8.5509   8.8097   9.2716   9.4722   9.6083
     9.9282  10.2208  10.3729  11.2056  13.9572  14.5170  15.9192  17.3336
    17.9357  18.0409  18.8489  19.2921  19.4755  19.8404  19.8501  20.2632
    20.7857  20.9173  21.3182  21.4506  21.6366  22.2064  22.4970  22.7980

          k = 0.3333 0.0000-0.1530 (  7046 PWs)   bands (ev):

   -59.5996 -59.5996 -59.5933 -59.5933 -33.5874 -33.5874 -33.5810 -33.5810
   -33.5214 -33.5214 -33.4878 -33.4878 -33.4252 -33.4252 -33.4060 -33.4060
   -12.5742 -12.5742 -11.9020 -11.9020 -11.8035 -11.8035 -11.4099 -11.4099
   -11.3352 -11.3352  -0.5414  -0.5414   0.2819   0.2819   0.6409   0.6409
     1.0463   1.0463   1.5565   1.5565   1.7394   1.7394   2.1236   2.1236
     2.2438   2.2438   2.5189   2.5189   2.7577   2.7577   2.9186   2.9186
     2.9813   2.9813   3.5008   3.5008   3.7109   3.7109   3.9720   3.9720
     6.7345   6.7345   7.4502   7.4502   7.6738   7.6738   7.9494   7.9494
     8.2217   8.2217   8.4730   8.4730   9.1235   9.1235   9.5922   9.5922
     9.8501   9.8501  10.9428  10.9428  14.1779  14.1779  16.5605  16.5605
    18.2478  18.2478  18.8501  18.8501  19.4887  19.4887  20.4621  20.4621
    20.5823  20.5823  21.5303  21.5303  22.1550  22.1550  22.3028  22.3028

          k = 0.3333 0.2777 0.0000 (  7080 PWs)   bands (ev):

   -59.6002 -59.5984 -59.5943 -59.5925 -33.5927 -33.5904 -33.5883 -33.5841
   -33.5325 -33.5052 -33.4935 -33.4836 -33.4298 -33.4254 -33.4103 -33.3989
   -12.5483 -12.4144 -11.9535 -11.8193 -11.7798 -11.7525 -11.3607 -11.3418
   -11.2572 -11.2467  -0.5656  -0.4934   0.1947   0.2333   0.2841   0.4698
     0.6301   0.7562   0.7656   0.9936   1.0327   1.3992   1.5741   1.7039
     1.7790   1.8159   1.9430   2.0604   2.2555   2.7393   2.9689   3.1916
     3.4245   3.4878   3.9814   4.1281   4.1361   4.2538   4.3195   4.3360
     6.6084   6.8018   7.5307   7.5656   7.8667   8.0638   8.1090   8.1297
     8.3698   8.4024   8.4668   8.5299   9.1929  10.1645  10.2480  10.3250
    10.6127  10.7487  10.9462  11.1504  14.7124  14.8693  16.7686  16.8907
    17.3955  17.9518  18.6582  18.6861  19.1549  19.3638  19.7684  20.1213
    20.2079  20.5033  20.6260  20.7936  21.1976  21.2082  22.1049  22.3260

          k = 0.3333 0.2777-0.1530 (  7078 PWs)   bands (ev):

   -59.5995 -59.5995 -59.5932 -59.5932 -33.5918 -33.5918 -33.5862 -33.5862
   -33.5210 -33.5210 -33.4874 -33.4874 -33.4251 -33.4251 -33.4060 -33.4060
   -12.4894 -12.4894 -11.8745 -11.8745 -11.7703 -11.7703 -11.3524 -11.3524
   -11.2506 -11.2506  -0.5366  -0.5366   0.2245   0.2245   0.3960   0.3960
     0.5842   0.5842   0.9797   0.9797   1.1504   1.1504   1.6023   1.6023
     1.8442   1.8442   2.2452   2.2452   2.3155   2.3155   2.9215   2.9215
     3.6341   3.6341   3.9393   3.9393   4.2646   4.2646   4.3283   4.3283
     6.7389   6.7389   7.5371   7.5371   7.9544   7.9544   8.1482   8.1482
     8.3370   8.3370   8.4738   8.4738   9.5576   9.5576  10.4172  10.4172
    10.7954  10.7954  10.9628  10.9628  14.7851  14.7851  16.8555  16.8555
    17.6297  17.6297  18.7024  18.7024  19.2277  19.2277  19.8237  19.8237
    20.4498  20.4498  20.7645  20.7645  21.4749  21.4749  21.6581  21.6581

     highest occupied, lowest unoccupied level (ev):     4.3360    6.2308

!    total energy              =    -896.67849048 Ry
     estimated scf accuracy    <          8.0E-11 Ry

     The total energy is the sum of the following terms:
     one-electron contribution =    -580.88075225 Ry
     hartree contribution      =     328.93336393 Ry
     xc contribution           =    -137.83487149 Ry
     ewald contribution        =    -506.89623068 Ry

     convergence has been achieved in  15 iterations

     Writing all to output data dir ./V2O5.save/ :
     XML data file, charge density, pseudopotentials, collected wavefunctions
 
     init_run     :      0.64s CPU      1.16s WALL (       1 calls)
     electrons    :     30.84s CPU     31.44s WALL (       1 calls)

     Called by init_run:
     wfcinit      :      0.49s CPU      0.55s WALL (       1 calls)
     potinit      :      0.02s CPU      0.03s WALL (       1 calls)
     hinit0       :      0.05s CPU      0.36s WALL (       1 calls)

     Called by electrons:
     c_bands      :     26.91s CPU     27.20s WALL (      15 calls)
     sum_band     :      3.29s CPU      3.44s WALL (      15 calls)
     v_of_rho     :      0.15s CPU      0.16s WALL (      16 calls)
     newd         :      0.44s CPU      0.57s WALL (      16 calls)
     mix_rho      :      0.05s CPU      0.06s WALL (      15 calls)

     Called by c_bands:
     init_us_2    :      0.08s CPU      0.09s WALL (     248 calls)
     cegterg      :     26.39s CPU     26.65s WALL (     120 calls)

     Called by *egterg:
     cdiaghg      :      9.32s CPU      9.38s WALL (     449 calls)
     h_psi        :     10.42s CPU     10.60s WALL (     457 calls)
     s_psi        :      1.22s CPU      1.23s WALL (     457 calls)
     g_psi        :      0.03s CPU      0.03s WALL (     329 calls)

     Called by h_psi:
     h_psi:calbec :      1.48s CPU      1.50s WALL (     457 calls)
     vloc_psi     :      7.66s CPU      7.82s WALL (     457 calls)
     add_vuspsi   :      1.25s CPU      1.26s WALL (     457 calls)

     General routines
     calbec       :      2.13s CPU      2.16s WALL (     577 calls)
     fft          :      0.09s CPU      0.34s WALL (     205 calls)
     ffts         :      0.01s CPU      0.01s WALL (      31 calls)
     fftw         :      9.00s CPU      9.17s WALL (   62500 calls)
     interpolate  :      0.01s CPU      0.01s WALL (      16 calls)
 
     Parallel routines
 
     PWSCF        :     31.86s CPU     33.80s WALL

 
   This run was terminated on:   1:11:11   4Jun2026            

=------------------------------------------------------------------------------=
   JOB DONE.
=------------------------------------------------------------------------------=
