K-points for V2O5 band path (Pmmn)
30
Line-mode
Reciprocal
0.000000 0.000000 0.000000 ! G
0.500000 0.000000 0.000000 ! X

0.500000 0.000000 0.000000 ! X
0.500000 0.500000 0.000000 ! S

0.500000 0.500000 0.000000 ! S
0.000000 0.500000 0.000000 ! Y

0.000000 0.500000 0.000000 ! Y
0.000000 0.000000 0.000000 ! G

0.000000 0.000000 0.000000 ! G
0.000000 0.000000 0.500000 ! Z

0.000000 0.000000 0.500000 ! Z
0.500000 0.000000 0.500000 ! U

0.500000 0.000000 0.500000 ! U
0.500000 0.500000 0.500000 ! R

0.500000 0.500000 0.500000 ! R
0.000000 0.500000 0.500000 ! T

0.000000 0.500000 0.500000 ! T
0.000000 0.000000 0.500000 ! Z

0.000000 0.500000 0.000000 ! Y
0.000000 0.500000 0.500000 ! T

0.500000 0.000000 0.500000 ! U
0.500000 0.000000 0.000000 ! X

0.500000 0.500000 0.000000 ! S
0.500000 0.500000 0.500000 ! R
